user	indegree	indegree_ranking	outdegree	outdegree_ranking	kin	kin_ranking	kout	kout_ranking	betweeness	betweeness_ranking	pagerank	pagerank_ranking	
Konstantinos_Karamanlis	2	(1180)	3	(835)	1	(1127)	2	(444)	7064.80	(738)	0.00022	(1265)
Charles_de_Gaulle	18	(40)	8	(193)	3	(39)	3	(39)	71531.17	(91)	0.00203	(48)
Konrad_Adenauer	4	(576)	3	(835)	2	(305)	2	(444)	30742.62	(215)	0.00110	(150)
Kostas_Karamanlis	2	(1180)	1	(1804)	1	(1127)	1	(1316)	4118.00	(1009)	0.00016	(1557)
William_Butler_Yeats	3	(803)	2	(1229)	1	(1127)	1	(1316)	1457.18	(1397)	0.00010	(2067)
Rudyard_Kipling	5	(441)	1	(1804)	2	(305)	1	(1316)	1772.75	(1358)	0.00021	(1291)
Ezra_Pound	4	(576)	5	(449)	1	(1127)	2	(444)	6473.61	(795)	0.00017	(1520)
Aretha_Franklin	5	(441)	1	(1804)	2	(305)	1	(1316)	6255.08	(817)	0.00030	(964)
Barack_Obama	33	(8)	55	(1)	3	(39)	3	(39)	623107.73	(1)	0.00262	(29)
Bảo_Đại	2	(1180)	2	(1229)	1	(1127)	2	(444)	2433.64	(1191)	0.00021	(1305)
Ho_Tši_Minh	6	(331)	6	(326)	2	(305)	3	(39)	12862.80	(485)	0.00076	(289)
Ngô_Đình_Diệm	1	(1694)	3	(835)	1	(1127)	2	(444)	1091.13	(1454)	0.00015	(1649)
Gregorius_XIV	2	(1180)	2	(1229)	2	(305)	1	(1316)	8056.95	(677)	0.00052	(479)
Innocentius_IX	2	(1180)	2	(1229)	2	(305)	1	(1316)	4272.22	(993)	0.00058	(421)
Urbanus_VII	3	(803)	2	(1229)	2	(305)	1	(1316)	12625.69	(491)	0.00047	(597)
H._P._Lovecraft	2	(1180)	1	(1804)	1	(1127)	1	(1316)	150.84	(1660)	0.00107	(162)
Edgar_Allan_Poe	8	(201)	1	(1804)	1	(1127)	1	(1316)	691.00	(1520)	0.00132	(108)
Kemal_Atatürk	1	(1694)	1	(1804)	1	(1127)	1	(1316)	0.00	(1843)	0.00008	(2222)
İsmet_İnönü	1	(1694)	4	(603)	1	(1127)	3	(39)	2058.00	(1297)	0.00012	(1820)
Vjatšeslav_Molotov	8	(201)	7	(246)	3	(39)	4	(26)	4042.91	(1026)	0.00087	(226)
Joachim_von_Ribbentrop	4	(576)	6	(326)	2	(305)	3	(39)	6892.23	(756)	0.00039	(739)
Aleksei_Rykov	3	(803)	5	(449)	3	(39)	3	(39)	369.08	(1584)	0.00038	(747)
Josif_Stalin	44	(3)	25	(8)	3	(39)	4	(26)	210354.41	(14)	0.00427	(6)
Georgi_Malenkov	7	(260)	4	(603)	3	(39)	4	(26)	180.31	(1641)	0.00085	(236)
Aleksandr_Skrjabin	3	(803)	0	(2670)	1	(1127)	0	(2545)	0.00	(1843)	0.00019	(1386)
Lavrenti_Berija	6	(331)	6	(326)	3	(39)	4	(26)	1242.89	(1430)	0.00084	(240)
Nikita_Hruštšov	21	(28)	13	(64)	3	(39)	4	(26)	92658.15	(59)	0.00271	(26)
C._G._Jung	4	(576)	3	(835)	1	(1127)	2	(444)	5193.05	(906)	0.00097	(192)
Väiski_Vemmelsääri	1	(1694)	0	(2670)	1	(1127)	0	(2545)	0.00	(1843)	0.00034	(835)
Alfred_Adler	1	(1694)	2	(1229)	1	(1127)	2	(444)	0.00	(1843)	0.00034	(835)
Sigmund_Freud	21	(28)	2	(1229)	3	(39)	2	(444)	153189.57	(29)	0.00162	(73)
Steve_Carell	1	(1694)	1	(1804)	0	(2330)	0	(2545)	1.00	(1822)	0.00007	(2270)
Jim_Carrey	9	(159)	0	(2670)	2	(305)	0	(2545)	0.00	(1843)	0.00032	(883)
Tina_Turner	2	(1180)	11	(94)	2	(305)	3	(39)	15065.53	(428)	0.00009	(2169)
Beyoncé_Knowles	14	(70)	4	(603)	3	(39)	3	(39)	8573.75	(651)	0.00051	(554)
Eros_Ramazzotti	2	(1180)	0	(2670)	1	(1127)	0	(2545)	0.00	(1843)	0.00012	(1860)
Phil_Collins	2	(1180)	0	(2670)	2	(305)	0	(2545)	0.00	(1843)	0.00011	(1895)
Bryan_Adams	2	(1180)	0	(2670)	1	(1127)	0	(2545)	0.00	(1843)	0.00009	(2110)
Sting	3	(803)	3	(835)	1	(1127)	1	(1316)	6864.86	(758)	0.00011	(1899)
David_Bowie	18	(40)	7	(246)	2	(305)	2	(444)	32893.12	(198)	0.00107	(161)
Mark_Knopfler	1	(1694)	1	(1804)	1	(1127)	1	(1316)	67.83	(1718)	0.00006	(2495)
Tom_Jones	4	(576)	13	(64)	2	(305)	3	(39)	18967.02	(341)	0.00018	(1483)
Madonna	30	(10)	10	(128)	3	(39)	3	(39)	181605.18	(20)	0.00121	(133)
Bruce_Springsteen	7	(260)	2	(1229)	2	(305)	2	(444)	10261.25	(578)	0.00026	(1131)
Eric_Clapton	11	(111)	6	(326)	2	(305)	3	(39)	13217.01	(471)	0.00069	(335)
Jaakko_II_(Englanti)	1	(1694)	1	(1804)	0	(2330)	0	(2545)	1.00	(1822)	0.00006	(2512)
Vilhelm_III_Oranialainen	4	(576)	0	(2670)	1	(1127)	0	(2545)	0.00	(1843)	0.00027	(1076)
Johannes_Paavali_I	3	(803)	6	(326)	2	(305)	3	(39)	12182.79	(511)	0.00018	(1434)
Pius_III	2	(1180)	2	(1229)	2	(305)	2	(444)	1774.36	(1357)	0.00020	(1356)
Paavali_VI	7	(260)	6	(326)	3	(39)	3	(39)	10635.78	(564)	0.00031	(941)
Johannes_XXIII	10	(134)	10	(128)	3	(39)	3	(39)	28950.40	(227)	0.00049	(567)
Johannes_Paavali_II	24	(19)	15	(41)	3	(39)	3	(39)	259247.78	(8)	0.00108	(158)
Leo_XI	2	(1180)	1	(1804)	2	(305)	1	(1316)	2808.55	(1142)	0.00037	(775)
Astor_Piazzolla	1	(1694)	3	(835)	0	(2330)	2	(444)	690.31	(1521)	0.00007	(2349)
Jorge_Luis_Borges	4	(576)	2	(1229)	2	(305)	2	(444)	10337.60	(573)	0.00013	(1776)
Johann_Sebastian_Bach	13	(80)	4	(603)	2	(305)	2	(444)	9724.11	(606)	0.00117	(137)
Mstislav_Rostropovitš	4	(576)	5	(449)	1	(1127)	2	(444)	22836.63	(286)	0.00020	(1348)
Felipe_Calderón	1	(1694)	2	(1229)	1	(1127)	2	(444)	113.16	(1687)	0.00007	(2337)
Vicente_Fox	1	(1694)	4	(603)	1	(1127)	2	(444)	209.71	(1632)	0.00008	(2191)
Hugo_Chávez	18	(40)	16	(34)	2	(305)	3	(39)	107100.50	(49)	0.00076	(290)
André_Breton	4	(576)	11	(94)	1	(1127)	2	(444)	22567.79	(291)	0.00023	(1213)
Anatole_France	1	(1694)	0	(2670)	1	(1127)	0	(2545)	0.00	(1843)	0.00007	(2333)
Joan_Miró	2	(1180)	6	(326)	1	(1127)	2	(444)	7206.50	(727)	0.00012	(1856)
Pablo_Picasso	25	(17)	6	(326)	2	(305)	2	(444)	82438.49	(76)	0.00139	(100)
Guillaume_Apollinaire	5	(441)	3	(835)	1	(1127)	2	(444)	5710.49	(860)	0.00019	(1406)
Frida_Kahlo	4	(576)	3	(835)	2	(305)	2	(444)	10182.06	(584)	0.00067	(358)
Arthur_Rimbaud	5	(441)	2	(1229)	2	(305)	2	(444)	3088.61	(1118)	0.00031	(928)
Lev_Trotski	14	(70)	8	(193)	3	(39)	3	(39)	43922.85	(150)	0.00130	(110)
Salvador_Dalí	8	(201)	8	(193)	2	(305)	2	(444)	53068.24	(124)	0.00053	(476)
Georg_Wilhelm_Friedrich_Hegel	9	(159)	9	(161)	2	(305)	2	(444)	68774.56	(95)	0.00047	(610)
Jacques_Prévert	1	(1694)	0	(2670)	1	(1127)	0	(2545)	0.00	(1843)	0.00007	(2333)
Matthew_Perry_(näyttelijä)	0	(2528)	2	(1229)	0	(2330)	2	(444)	0.00	(1843)	0.00005	(2965)
Julia_Roberts	5	(441)	6	(326)	2	(305)	2	(444)	9001.54	(632)	0.00024	(1206)
Jennifer_Aniston	7	(260)	12	(72)	2	(305)	2	(444)	27885.23	(237)	0.00030	(959)
Boris_Johnson	0	(2528)	2	(1229)	0	(2330)	1	(1316)	0.00	(1843)	0.00005	(2965)
David_Cameron	5	(441)	2	(1229)	2	(305)	1	(1316)	4543.58	(956)	0.00047	(602)
John_Major	4	(576)	3	(835)	3	(39)	3	(39)	4246.05	(996)	0.00037	(783)
Friedrich_von_Hayek	4	(576)	8	(193)	2	(305)	3	(39)	10856.74	(559)	0.00046	(628)
John_Maynard_Keynes	8	(201)	0	(2670)	3	(39)	0	(2545)	0.00	(1843)	0.00044	(651)
Robert_Nozick	2	(1180)	4	(603)	2	(305)	2	(444)	3456.95	(1076)	0.00059	(413)
Ludwig_Wittgenstein	11	(111)	3	(835)	2	(305)	1	(1316)	13844.21	(458)	0.00076	(288)
Ludwig_von_Mises	3	(803)	1	(1804)	2	(305)	1	(1316)	0.00	(1843)	0.00026	(1111)
Margaret_Thatcher	16	(53)	11	(94)	3	(39)	3	(39)	141585.25	(35)	0.00131	(109)
Ronald_Reagan	39	(6)	8	(193)	3	(39)	3	(39)	85598.47	(68)	0.00331	(13)
Milton_Friedman	5	(441)	6	(326)	2	(305)	3	(39)	10624.72	(566)	0.00023	(1235)
Adam_Smith	11	(111)	2	(1229)	3	(39)	2	(444)	31327.94	(209)	0.00082	(249)
Osamu_Tezuka	0	(2528)	2	(1229)	0	(2330)	1	(1316)	0.00	(1843)	0.00005	(2965)
Robert_Louis_Stevenson	2	(1180)	0	(2670)	0	(2330)	0	(2545)	0.00	(1843)	0.00008	(2204)
Walt_Disney	9	(159)	2	(1229)	2	(305)	2	(444)	15010.86	(431)	0.00042	(679)
Jeremy_Bentham	6	(331)	5	(449)	2	(305)	2	(444)	19424.01	(330)	0.00080	(262)
David_Hume	12	(91)	14	(44)	3	(39)	3	(39)	89514.65	(63)	0.00111	(148)
Courteney_Cox	2	(1180)	3	(835)	1	(1127)	2	(444)	1234.51	(1431)	0.00011	(1940)
Carl_Friedrich_Gauss	3	(803)	6	(326)	1	(1127)	2	(444)	7155.05	(731)	0.00017	(1490)
Albert_Einstein	33	(8)	25	(8)	3	(39)	3	(39)	462140.60	(2)	0.00258	(30)
Alexander_von_Humboldt	4	(576)	1	(1804)	2	(305)	0	(2545)	2354.00	(1205)	0.00066	(367)
Friedrich_Bessel	1	(1694)	1	(1804)	1	(1127)	1	(1316)	17.69	(1763)	0.00008	(2238)
Isaac_Newton	18	(40)	11	(94)	3	(39)	2	(444)	68423.03	(96)	0.00108	(155)
Max_Weber	4	(576)	0	(2670)	1	(1127)	0	(2545)	0.00	(1843)	0.00017	(1492)
Bernhard_Riemann	2	(1180)	1	(1804)	1	(1127)	1	(1316)	4883.30	(926)	0.00009	(2087)
Nils_Liedholm	1	(1694)	1	(1804)	1	(1127)	1	(1316)	0.00	(1843)	0.00015	(1654)
Sven-Göran_Eriksson	6	(331)	4	(603)	1	(1127)	1	(1316)	31283.66	(211)	0.00042	(690)
Ali_Hasan_al-Majid	1	(1694)	1	(1804)	1	(1127)	1	(1316)	0.00	(1843)	0.00028	(1029)
Saddam_Hussein	21	(28)	7	(246)	3	(39)	3	(39)	61155.31	(111)	0.00179	(61)
Georges_Clemenceau	2	(1180)	6	(326)	1	(1127)	2	(444)	4908.18	(924)	0.00014	(1675)
Napoleon_III	13	(80)	3	(835)	2	(305)	2	(444)	45268.50	(145)	0.00245	(33)
Patrice_de_Mac-Mahon	1	(1694)	2	(1229)	1	(1127)	2	(444)	465.18	(1562)	0.00007	(2318)
David_Lloyd_George	6	(331)	2	(1229)	3	(39)	2	(444)	2069.78	(1273)	0.00060	(404)
Aristide_Briand	4	(576)	6	(326)	1	(1127)	2	(444)	10122.36	(589)	0.00025	(1139)
Émile_Zola	7	(260)	0	(2670)	2	(305)	0	(2545)	0.00	(1843)	0.00033	(862)
Woodrow_Wilson	12	(91)	3	(835)	3	(39)	2	(444)	8940.02	(635)	0.00278	(24)
Eva_Perón	3	(803)	4	(603)	2	(305)	3	(39)	13770.34	(462)	0.00085	(238)
Juan_Perón	6	(331)	6	(326)	2	(305)	3	(39)	13177.20	(476)	0.00048	(581)
Andrew_Lloyd_Webber	5	(441)	1	(1804)	2	(305)	1	(1316)	9939.99	(598)	0.00081	(254)
Francisco_Franco	15	(62)	7	(246)	2	(305)	3	(39)	130807.95	(40)	0.00163	(70)
Richard_von_Weizsäcker	1	(1694)	1	(1804)	1	(1127)	1	(1316)	15.89	(1764)	0.00007	(2359)
Djibril_Cissé	1	(1694)	1	(1804)	1	(1127)	1	(1316)	2109.23	(1265)	0.00013	(1800)
Didier_Deschamps	4	(576)	1	(1804)	1	(1127)	1	(1316)	10135.51	(587)	0.00047	(596)
Gustav_Stresemann	2	(1180)	1	(1804)	1	(1127)	1	(1316)	2234.55	(1240)	0.00020	(1341)
Hjalmar_Schacht	2	(1180)	5	(449)	1	(1127)	3	(39)	4579.67	(951)	0.00047	(613)
Joseph_Conrad	3	(803)	1	(1804)	0	(2330)	1	(1316)	7559.98	(706)	0.00014	(1705)
Francis_Ford_Coppola	21	(28)	22	(13)	3	(39)	3	(39)	333046.07	(6)	0.00144	(93)
André_Malraux	0	(2528)	9	(161)	0	(2330)	3	(39)	0.00	(1843)	0.00005	(2657)
John_F._Kennedy	28	(12)	13	(64)	3	(39)	3	(39)	159290.18	(26)	0.00358	(11)
André_Gide	4	(576)	0	(2670)	0	(2330)	0	(2545)	0.00	(1843)	0.00010	(1951)
François_Mauriac	1	(1694)	0	(2670)	0	(2330)	0	(2545)	0.00	(1843)	0.00006	(2512)
François_Mitterrand	14	(70)	10	(128)	3	(39)	3	(39)	40327.98	(165)	0.00146	(91)
Lyndon_B._Johnson	17	(47)	5	(449)	3	(39)	3	(39)	18763.77	(344)	0.00201	(49)
Jacqueline_Kennedy_Onassis	2	(1180)	3	(835)	1	(1127)	3	(39)	4153.77	(1003)	0.00049	(569)
Gabriel_Milito	1	(1694)	1	(1804)	1	(1127)	1	(1316)	0.00	(1843)	0.00122	(130)
Diego_Milito	2	(1180)	1	(1804)	1	(1127)	1	(1316)	2354.00	(1205)	0.00130	(111)
Rudolf_II	3	(803)	2	(1229)	2	(305)	1	(1316)	4709.00	(940)	0.00032	(899)
Maksimilian_II	1	(1694)	1	(1804)	1	(1127)	1	(1316)	0.00	(1843)	0.00020	(1372)
Giuseppe_Arcimboldo	1	(1694)	0	(2670)	1	(1127)	0	(2545)	0.00	(1843)	0.00020	(1372)
Pompeius	5	(441)	5	(449)	3	(39)	2	(444)	3084.43	(1119)	0.00053	(460)
Catilina	4	(576)	2	(1229)	3	(39)	1	(1316)	28.15	(1749)	0.00040	(711)
Julius_Caesar	14	(70)	11	(94)	3	(39)	3	(39)	201895.77	(16)	0.00191	(53)
Marcus_Licinius_Crassus	5	(441)	3	(835)	3	(39)	1	(1316)	1028.01	(1467)	0.00051	(551)
Cicero	14	(70)	14	(44)	3	(39)	3	(39)	84206.96	(70)	0.00093	(206)
Sulla	7	(260)	1	(1804)	3	(39)	1	(1316)	593.93	(1533)	0.00097	(193)
Bette_Davis	7	(260)	3	(835)	2	(305)	2	(444)	4255.65	(995)	0.00036	(785)
Greta_Garbo	5	(441)	0	(2670)	2	(305)	0	(2545)	0.00	(1843)	0.00028	(1013)
Joan_Crawford	3	(803)	13	(64)	2	(305)	3	(39)	7686.78	(701)	0.00020	(1342)
Katharine_Hepburn	12	(91)	3	(835)	2	(305)	2	(444)	44994.68	(147)	0.00151	(86)
Fabio_Capello	6	(331)	3	(835)	1	(1127)	2	(444)	71087.22	(92)	0.00073	(306)
David_Beckham	8	(201)	5	(449)	2	(305)	2	(444)	114616.88	(44)	0.00069	(336)
Alessandro_Del_Piero	1	(1694)	10	(128)	1	(1127)	2	(444)	65927.42	(101)	0.00027	(1068)
Theodosius_II	2	(1180)	2	(1229)	1	(1127)	1	(1316)	4409.00	(975)	0.00024	(1191)
Valentinianus_III	3	(803)	2	(1229)	1	(1127)	1	(1316)	8814.50	(643)	0.00031	(915)
Justinianus_I	1	(1694)	0	(2670)	1	(1127)	0	(2545)	0.00	(1843)	0.00016	(1566)
David_Ben-Gurion	6	(331)	2	(1229)	3	(39)	1	(1316)	4488.72	(963)	0.00086	(234)
Menachem_Begin	7	(260)	5	(449)	3	(39)	3	(39)	39559.76	(167)	0.00087	(225)
Moshe_Sharett	1	(1694)	1	(1804)	1	(1127)	1	(1316)	0.00	(1843)	0.00044	(649)
Franklin_D._Roosevelt	20	(36)	5	(449)	3	(39)	3	(39)	67619.11	(98)	0.00479	(5)
Benito_Mussolini	24	(19)	10	(128)	3	(39)	3	(39)	169912.69	(23)	0.00230	(37)
James_Joyce	9	(159)	18	(26)	2	(305)	2	(444)	100041.95	(52)	0.00043	(670)
T._S._Eliot	8	(201)	1	(1804)	2	(305)	1	(1316)	7049.54	(739)	0.00055	(445)
Ernest_Hemingway	10	(134)	1	(1804)	2	(305)	1	(1316)	7819.67	(693)	0.00052	(543)
Henryk_Szeryng	0	(2528)	1	(1804)	0	(2330)	1	(1316)	0.00	(1843)	0.00005	(2680)
Nadia_Boulanger	1	(1694)	5	(449)	0	(2330)	2	(444)	2062.00	(1278)	0.00010	(2008)
Svjatoslav_Richter	3	(803)	3	(835)	1	(1127)	2	(444)	17731.29	(360)	0.00015	(1600)
David_Oistrah	1	(1694)	4	(603)	1	(1127)	2	(444)	3024.02	(1126)	0.00010	(2007)
Herbert_von_Karajan	7	(260)	1	(1804)	2	(305)	1	(1316)	9148.63	(627)	0.00034	(830)
Carl_Gustaf_Emil_Mannerheim	3	(803)	6	(326)	2	(305)	3	(39)	26152.74	(250)	0.00067	(354)
Adolf_Hitler	73	(1)	30	(5)	3	(39)	3	(39)	424746.73	(3)	0.00774	(1)
Juho_Kusti_Paasikivi	1	(1694)	1	(1804)	1	(1127)	1	(1316)	0.00	(1843)	0.00015	(1611)
Robert_A._Heinlein	2	(1180)	2	(1229)	1	(1127)	1	(1316)	8420.65	(660)	0.00038	(750)
Urho_Kekkonen	5	(441)	4	(603)	2	(305)	3	(39)	16420.96	(394)	0.00036	(787)
Winston_Churchill	28	(12)	17	(32)	3	(39)	3	(39)	155158.37	(27)	0.00396	(8)
Konstantinus_Suuri	4	(576)	2	(1229)	2	(305)	2	(444)	12434.12	(498)	0.00037	(784)
Julianus	4	(576)	2	(1229)	2	(305)	2	(444)	13735.82	(464)	0.00036	(790)
Rafael	16	(53)	6	(326)	2	(305)	2	(444)	55678.28	(118)	0.00140	(98)
George_Armstrong_Custer	0	(2528)	5	(449)	0	(2330)	2	(444)	0.00	(1843)	0.00005	(2660)
Robert_E._Lee	6	(331)	1	(1804)	1	(1127)	1	(1316)	2143.13	(1259)	0.00044	(654)
Ulysses_S._Grant	8	(201)	4	(603)	2	(305)	2	(444)	17546.31	(365)	0.00118	(136)
Olivia_de_Havilland	4	(576)	10	(128)	2	(305)	3	(39)	9515.45	(616)	0.00016	(1579)
Buffalo_Bill	3	(803)	1	(1804)	1	(1127)	1	(1316)	2354.00	(1205)	0.00073	(301)
Errol_Flynn	3	(803)	1	(1804)	2	(305)	1	(1316)	2940.87	(1130)	0.00011	(1897)
Deng_Xiaoping	4	(576)	5	(449)	3	(39)	3	(39)	11253.43	(541)	0.00147	(89)
Mao_Zedong	10	(134)	8	(193)	3	(39)	3	(39)	22487.11	(292)	0.00170	(63)
Zhou_Enlai	7	(260)	4	(603)	3	(39)	3	(39)	7481.29	(709)	0.00129	(115)
Jiang_Zemin	3	(803)	2	(1229)	2	(305)	1	(1316)	5767.17	(853)	0.00168	(65)
Jimmy_Carter	22	(24)	11	(94)	3	(39)	3	(39)	117762.07	(42)	0.00223	(41)
Patty_Schnyder	10	(134)	1	(1804)	6	(1)	1	(1316)	1.13	(1821)	0.00036	(801)
Kim_Clijsters	10	(134)	12	(72)	6	(1)	5	(1)	2346.38	(1230)	0.00071	(323)
George_Hincapie	0	(2528)	1	(1804)	0	(2330)	1	(1316)	0.00	(1843)	0.00005	(2680)
Lance_Armstrong	8	(201)	4	(603)	2	(305)	2	(444)	55369.19	(120)	0.00123	(129)
Rachel_Weisz	1	(1694)	4	(603)	1	(1127)	1	(1316)	5073.55	(915)	0.00010	(1983)
Daniel_Craig	7	(260)	5	(449)	2	(305)	2	(444)	14644.78	(441)	0.00027	(1057)
Darren_Aronofsky	2	(1180)	0	(2670)	1	(1127)	0	(2545)	0.00	(1843)	0.00010	(1990)
John_le_Carré	1	(1694)	1	(1804)	1	(1127)	1	(1316)	1327.74	(1415)	0.00007	(2300)
Bernardo_Bertolucci	3	(803)	1	(1804)	1	(1127)	1	(1316)	8485.18	(655)	0.00028	(1014)
Lady_Jane_Grey	3	(803)	3	(835)	2	(305)	2	(444)	3961.94	(1036)	0.00012	(1818)
Edvard_VI	5	(441)	7	(246)	3	(39)	3	(39)	2553.07	(1177)	0.00020	(1366)
Bob_Dylan	23	(22)	11	(94)	3	(39)	3	(39)	162353.05	(25)	0.00143	(95)
Helena_Bonham_Carter	5	(441)	2	(1229)	2	(305)	2	(444)	3307.85	(1092)	0.00031	(916)
Kiefer_Sutherland	3	(803)	2	(1229)	2	(305)	2	(444)	1444.22	(1399)	0.00013	(1782)
Angelina_Jolie	5	(441)	6	(326)	2	(305)	2	(444)	12274.08	(504)	0.00029	(1002)
Liam_Neeson	3	(803)	1	(1804)	2	(305)	1	(1316)	1327.75	(1414)	0.00028	(1025)
George_Clooney	6	(331)	0	(2670)	2	(305)	0	(2545)	0.00	(1843)	0.00018	(1475)
Richard_Gere	7	(260)	1	(1804)	2	(305)	1	(1316)	2354.00	(1205)	0.00130	(112)
Cameron_Diaz	4	(576)	5	(449)	2	(305)	3	(39)	15861.93	(411)	0.00025	(1169)
Ioannis_Metaxas	0	(2528)	1	(1804)	0	(2330)	1	(1316)	0.00	(1843)	0.00005	(2680)
Rudolf_Mössbauer	1	(1694)	1	(1804)	1	(1127)	0	(2545)	5.00	(1792)	0.00017	(1505)
Richard_Feynman	4	(576)	0	(2670)	1	(1127)	0	(2545)	0.00	(1843)	0.00028	(1028)
Felipe_(Espanjan_kruununprinssi)	0	(2528)	1	(1804)	0	(2330)	1	(1316)	0.00	(1843)	0.00005	(2680)
Sofía_(Espanjan_kuningatar)	2	(1180)	4	(603)	1	(1127)	2	(444)	6176.00	(825)	0.00015	(1644)
Sven_Haaraparta	1	(1694)	2	(1229)	1	(1127)	2	(444)	0.00	(1843)	0.00033	(879)
Ethelred_Neuvoton	3	(803)	3	(835)	2	(305)	2	(444)	3545.00	(1065)	0.00092	(217)
Knuut_Suuri	3	(803)	2	(1229)	2	(305)	2	(444)	2.50	(1813)	0.00082	(247)
Louis_de_Broglie	2	(1180)	2	(1229)	1	(1127)	2	(444)	1394.46	(1406)	0.00009	(2124)
Michel_Debré	2	(1180)	5	(449)	1	(1127)	2	(444)	4971.91	(921)	0.00017	(1496)
Ludvig_XIV	18	(40)	8	(193)	2	(305)	2	(444)	100414.31	(51)	0.00160	(74)
Martin_Scorsese	22	(24)	21	(17)	3	(39)	3	(39)	225504.23	(12)	0.00165	(67)
Daniel_Day-Lewis	4	(576)	5	(449)	2	(305)	2	(444)	12117.25	(513)	0.00027	(1070)
Nicolas_Cage	8	(201)	3	(835)	3	(39)	3	(39)	12207.89	(510)	0.00042	(674)
Leonardo_DiCaprio	6	(331)	7	(246)	2	(305)	3	(39)	43876.43	(151)	0.00035	(816)
Ellen_Burstyn	1	(1694)	0	(2670)	1	(1127)	0	(2545)	0.00	(1843)	0.00012	(1824)
Clint_Eastwood	8	(201)	11	(94)	3	(39)	3	(39)	92768.84	(57)	0.00053	(468)
Mel_Gibson	6	(331)	5	(449)	2	(305)	2	(444)	38260.89	(169)	0.00054	(451)
Sharon_Stone	4	(576)	2	(1229)	2	(305)	2	(444)	9885.09	(600)	0.00027	(1077)
Frank_Sinatra	16	(53)	12	(72)	3	(39)	3	(39)	60692.85	(112)	0.00093	(208)
Cate_Blanchett	4	(576)	7	(246)	2	(305)	3	(39)	83931.54	(73)	0.00031	(923)
Matt_Damon	8	(201)	3	(835)	3	(39)	1	(1316)	7656.02	(704)	0.00077	(278)
Jack_Nicholson	8	(201)	3	(835)	3	(39)	2	(444)	17486.10	(367)	0.00041	(692)
Paul_Newman	9	(159)	1	(1804)	3	(39)	1	(1316)	1928.09	(1340)	0.00065	(371)
Robert_De_Niro	9	(159)	2	(1229)	3	(39)	1	(1316)	21984.12	(296)	0.00058	(418)
Michael_Jackson	24	(19)	43	(2)	3	(39)	3	(39)	363382.81	(5)	0.00160	(75)
Liza_Minnelli	4	(576)	3	(835)	2	(305)	1	(1316)	4410.95	(974)	0.00057	(427)
Alec_Baldwin	3	(803)	8	(193)	2	(305)	2	(444)	15707.47	(412)	0.00020	(1345)
John_Travolta	9	(159)	2	(1229)	3	(39)	1	(1316)	17126.61	(374)	0.00042	(684)
Elvis_Presley	21	(28)	6	(326)	3	(39)	3	(39)	150898.94	(30)	0.00162	(72)
Usher	4	(576)	4	(603)	3	(39)	2	(444)	36128.74	(178)	0.00019	(1393)
Alicia_Keys	5	(441)	10	(128)	3	(39)	3	(39)	48938.30	(132)	0.00032	(897)
Lil_Wayne	4	(576)	3	(835)	2	(305)	2	(444)	2021.67	(1328)	0.00024	(1209)
Nicki_Minaj	2	(1180)	2	(1229)	2	(305)	2	(444)	638.13	(1529)	0.00013	(1791)
Klemens_XIV	2	(1180)	2	(1229)	2	(305)	1	(1316)	2422.76	(1193)	0.00192	(52)
Klemens_XIII	2	(1180)	2	(1229)	2	(305)	1	(1316)	5242.98	(901)	0.00144	(94)
Pius_VI	4	(576)	1	(1804)	2	(305)	1	(1316)	1698.70	(1371)	0.00135	(105)
Eva_Marie_Saint	3	(803)	4	(603)	3	(39)	3	(39)	14554.92	(442)	0.00031	(942)
Marlon_Brando	13	(80)	11	(94)	3	(39)	3	(39)	245706.16	(10)	0.00116	(140)
Cary_Grant	9	(159)	13	(64)	3	(39)	3	(39)	57152.98	(114)	0.00102	(179)
Alfred_Hitchcock	19	(38)	14	(44)	3	(39)	3	(39)	94254.29	(56)	0.00138	(101)
Donald_Sutherland	3	(803)	7	(246)	2	(305)	2	(444)	8126.25	(672)	0.00019	(1409)
Babur	0	(2528)	1	(1804)	0	(2330)	1	(1316)	0.00	(1843)	0.00005	(2680)
Tšingis-kaani	3	(803)	1	(1804)	1	(1127)	1	(1316)	6.00	(1789)	0.00073	(300)
Agustín_de_Iturbide	1	(1694)	1	(1804)	1	(1127)	1	(1316)	0.00	(1843)	0.00013	(1801)
Antonio_López_de_Santa_Anna	2	(1180)	4	(603)	1	(1127)	2	(444)	7957.93	(684)	0.00033	(877)
Steve_Martin	2	(1180)	1	(1804)	1	(1127)	0	(2545)	1276.05	(1424)	0.00008	(2208)
Tim_Burton	9	(159)	3	(835)	2	(305)	2	(444)	8997.87	(633)	0.00065	(373)
Robert_McNamara	1	(1694)	2	(1229)	1	(1127)	2	(444)	502.32	(1553)	0.00007	(2301)
Ben_Affleck	5	(441)	1	(1804)	3	(39)	1	(1316)	163.63	(1647)	0.00043	(659)
Kim_Basinger	1	(1694)	1	(1804)	1	(1127)	1	(1316)	0.00	(1843)	0.00007	(2302)
Harrison_Ford	1	(1694)	4	(603)	1	(1127)	3	(39)	1140.48	(1445)	0.00007	(2302)
Tennessee_Williams	6	(331)	2	(1229)	2	(305)	1	(1316)	3042.54	(1125)	0.00043	(664)
Michael_Jordan	7	(260)	0	(2670)	2	(305)	0	(2545)	0.00	(1843)	0.00045	(632)
Alex_Ferguson	5	(441)	0	(2670)	2	(305)	0	(2545)	0.00	(1843)	0.00035	(817)
Raúl	4	(576)	14	(44)	2	(305)	2	(444)	111372.59	(46)	0.00038	(751)
Peter_Shilton	3	(803)	1	(1804)	2	(305)	1	(1316)	8556.34	(653)	0.00036	(799)
Jane_Seymour	7	(260)	7	(246)	3	(39)	3	(39)	6408.65	(804)	0.00029	(995)
Anna_Kleveläinen	3	(803)	4	(603)	3	(39)	3	(39)	199.51	(1636)	0.00012	(1804)
Richard_Burton	8	(201)	7	(246)	3	(39)	2	(444)	28335.20	(233)	0.00093	(205)
Emilia_Fox	1	(1694)	1	(1804)	1	(1127)	1	(1316)	0.00	(1843)	0.00009	(2154)
Katariina_Parr	6	(331)	8	(193)	3	(39)	3	(39)	19489.42	(329)	0.00036	(802)
Anna_Boleyn	7	(260)	12	(72)	3	(39)	3	(39)	49756.78	(131)	0.00037	(778)
Charles_Laughton	5	(441)	3	(835)	3	(39)	2	(444)	9940.85	(596)	0.00025	(1141)
Mihail_Gorbatšov	21	(28)	11	(94)	3	(39)	3	(39)	115422.04	(43)	0.00269	(27)
Hosni_Mubarak	6	(331)	3	(835)	3	(39)	2	(444)	14968.41	(434)	0.00058	(419)
Gamal_Abdel_Nasser	12	(91)	4	(603)	3	(39)	3	(39)	10915.97	(556)	0.00115	(142)
Hammurabi	1	(1694)	0	(2670)	1	(1127)	0	(2545)	0.00	(1843)	0.00028	(1029)
George_W._Bush	61	(2)	19	(23)	3	(39)	3	(39)	386199.10	(4)	0.00560	(3)
Mohammad_Reza_Pahlavi	5	(441)	10	(128)	2	(305)	3	(39)	37616.26	(172)	0.00059	(411)
James_Monroe	3	(803)	5	(449)	3	(39)	3	(39)	6268.93	(815)	0.00105	(170)
John_Quincy_Adams	6	(331)	7	(246)	3	(39)	3	(39)	16690.38	(384)	0.00156	(77)
Alexander_Hamilton	5	(441)	1	(1804)	3	(39)	1	(1316)	603.84	(1531)	0.00111	(147)
George_Washington	7	(260)	7	(246)	3	(39)	3	(39)	28566.50	(232)	0.00201	(50)
James_Madison	7	(260)	5	(449)	3	(39)	3	(39)	24555.85	(264)	0.00096	(196)
Thomas_Jefferson	13	(80)	7	(246)	3	(39)	3	(39)	20176.41	(320)	0.00187	(54)
Chaim_Weizmann	3	(803)	3	(835)	2	(305)	2	(444)	7383.59	(715)	0.00033	(861)
Jitzhak_Ben-Zvi	1	(1694)	1	(1804)	1	(1127)	1	(1316)	0.00	(1843)	0.00015	(1613)
Ezer_Weizman	2	(1180)	3	(835)	2	(305)	2	(444)	2032.39	(1327)	0.00018	(1470)
Elijah_Wood	2	(1180)	18	(26)	1	(1127)	3	(39)	46716.87	(141)	0.00008	(2217)
Sean_Astin	3	(803)	0	(2670)	1	(1127)	0	(2545)	0.00	(1843)	0.00007	(2352)
Jamie_Lee_Curtis	3	(803)	1	(1804)	1	(1127)	1	(1316)	205.08	(1633)	0.00012	(1855)
J._R._R._Tolkien	11	(111)	3	(835)	2	(305)	2	(444)	10189.74	(582)	0.00072	(314)
Ian_McKellen	4	(576)	3	(835)	1	(1127)	2	(444)	2722.77	(1156)	0.00010	(1975)
Christopher_Lee	3	(803)	42	(3)	2	(305)	3	(39)	147125.66	(32)	0.00031	(921)
Liv_Tyler	4	(576)	6	(326)	2	(305)	2	(444)	5321.89	(895)	0.00017	(1531)
Viggo_Mortensen	2	(1180)	1	(1804)	1	(1127)	1	(1316)	220.43	(1628)	0.00009	(2109)
Peter_Jackson	14	(70)	3	(835)	2	(305)	2	(444)	30809.90	(213)	0.00089	(222)
Franka_Potente	1	(1694)	0	(2670)	1	(1127)	0	(2545)	0.00	(1843)	0.00006	(2517)
Kevin_Costner	6	(331)	1	(1804)	2	(305)	1	(1316)	2217.78	(1243)	0.00034	(842)
Orlando_Bloom	4	(576)	1	(1804)	1	(1127)	0	(2545)	2355.00	(1203)	0.00010	(1974)
Sean_Bean	1	(1694)	1	(1804)	1	(1127)	1	(1316)	1609.20	(1379)	0.00006	(2517)
Iggy_Pop	8	(201)	1	(1804)	2	(305)	1	(1316)	1797.77	(1352)	0.00039	(746)
David_Fincher	3	(803)	4	(603)	1	(1127)	3	(39)	10339.49	(572)	0.00010	(1950)
Dominic_Monaghan	3	(803)	6	(326)	1	(1127)	3	(39)	11905.74	(524)	0.00008	(2185)
Thomas_Hobbes	9	(159)	3	(835)	3	(39)	1	(1316)	5241.60	(902)	0.00035	(818)
Ben_Jonson	2	(1180)	1	(1804)	2	(305)	1	(1316)	339.48	(1588)	0.00037	(769)
Francis_Bacon	2	(1180)	1	(1804)	2	(305)	1	(1316)	4477.60	(966)	0.00037	(769)
Robert_Boyle	4	(576)	1	(1804)	3	(39)	1	(1316)	1495.93	(1390)	0.00028	(1047)
Prince	5	(441)	10	(128)	2	(305)	3	(39)	24939.95	(260)	0.00026	(1102)
Sinéad_O'Connor	3	(803)	1	(1804)	1	(1127)	1	(1316)	2354.99	(1204)	0.00010	(1970)
Lenny_Kravitz	5	(441)	2	(1229)	2	(305)	2	(444)	6587.44	(786)	0.00031	(936)
Jimi_Hendrix	16	(53)	10	(128)	2	(305)	3	(39)	91168.19	(61)	0.00095	(199)
Kate_Bush	4	(576)	19	(23)	2	(305)	3	(39)	54050.73	(123)	0.00017	(1504)
James_Brown	4	(576)	0	(2670)	2	(305)	0	(2545)	0.00	(1843)	0.00022	(1261)
Rosanna_Arquette	0	(2528)	1	(1804)	0	(2330)	1	(1316)	0.00	(1843)	0.00005	(2680)
Óscar_Pereiro_Sío	2	(1180)	2	(1229)	1	(1127)	2	(444)	4.50	(1799)	0.00028	(1034)
Cadel_Evans	5	(441)	7	(246)	2	(305)	2	(444)	9484.33	(618)	0.00046	(623)
Kim_Il-sung	3	(803)	4	(603)	2	(305)	3	(39)	16052.13	(406)	0.00104	(173)
Kim_Jong-il	3	(803)	4	(603)	2	(305)	3	(39)	3662.58	(1059)	0.00041	(697)
William_Shakespeare	44	(3)	12	(72)	3	(39)	2	(444)	149952.90	(31)	0.00286	(21)
Boris_Jeltsin	12	(91)	7	(246)	3	(39)	3	(39)	57948.03	(113)	0.00220	(42)
Demi_Moore	1	(1694)	2	(1229)	1	(1127)	1	(1316)	1615.26	(1377)	0.00008	(2203)
Bruce_Willis	6	(331)	9	(161)	2	(305)	3	(39)	40501.75	(163)	0.00030	(957)
Bonifatius_VIII	5	(441)	1	(1804)	2	(305)	1	(1316)	5851.00	(844)	0.00070	(333)
Filip_IV_(Ranska)	1	(1694)	2	(1229)	1	(1127)	1	(1316)	5555.00	(873)	0.00068	(347)
Peter_Falk	0	(2528)	4	(603)	0	(2330)	2	(444)	0.00	(1843)	0.00005	(2543)
John_Cassavetes	1	(1694)	0	(2670)	0	(2330)	0	(2545)	0.00	(1843)	0.00006	(2430)
Molière	2	(1180)	1	(1804)	1	(1127)	1	(1316)	141.77	(1664)	0.00024	(1177)
Bing_Crosby	4	(576)	5	(449)	2	(305)	2	(444)	11670.04	(532)	0.00026	(1089)
Albrecht_Dürer	2	(1180)	2	(1229)	1	(1127)	2	(444)	14046.03	(454)	0.00033	(876)
Erasmus_Rotterdamilainen	4	(576)	6	(326)	2	(305)	2	(444)	17243.41	(372)	0.00029	(999)
Lauren_Bacall	7	(260)	10	(128)	3	(39)	3	(39)	79636.05	(78)	0.00056	(436)
Barbra_Streisand	4	(576)	11	(94)	2	(305)	3	(39)	143617.53	(34)	0.00013	(1755)
Rock_Hudson	3	(803)	1	(1804)	2	(305)	1	(1316)	268.54	(1612)	0.00020	(1333)
Humphrey_Bogart	11	(111)	4	(603)	3	(39)	2	(444)	21249.58	(303)	0.00114	(143)
Howard_Hawks	4	(576)	10	(128)	2	(305)	3	(39)	6424.85	(802)	0.00021	(1295)
Marilyn_Monroe	22	(24)	19	(23)	3	(39)	3	(39)	194642.35	(17)	0.00163	(69)
Kirk_Douglas	5	(441)	2	(1229)	2	(305)	1	(1316)	5770.37	(852)	0.00032	(904)
Lars_von_Trier	3	(803)	4	(603)	2	(305)	2	(444)	11520.49	(536)	0.00023	(1241)
Shimon_Peres	9	(159)	8	(193)	3	(39)	3	(39)	30767.86	(214)	0.00055	(441)
John_Wayne	8	(201)	1	(1804)	2	(305)	1	(1316)	204.18	(1635)	0.00231	(36)
Ilie_Năstase	2	(1180)	2	(1229)	2	(305)	1	(1316)	2059.20	(1289)	0.00081	(259)
Arthur_Ashe	2	(1180)	1	(1804)	2	(305)	1	(1316)	18.77	(1760)	0.00043	(661)
Björn_Borg	4	(576)	2	(1229)	3	(39)	1	(1316)	6444.77	(799)	0.00082	(253)
Robert_Trujillo	0	(2528)	1	(1804)	0	(2330)	1	(1316)	0.00	(1843)	0.00005	(2680)
Ozzy_Osbourne	3	(803)	2	(1229)	0	(2330)	1	(1316)	2075.20	(1271)	0.00011	(1910)
William_S._Burroughs	4	(576)	2	(1229)	2	(305)	1	(1316)	3207.54	(1104)	0.00053	(474)
Jack_Kerouac	3	(803)	1	(1804)	2	(305)	1	(1316)	12.85	(1769)	0.00038	(754)
Allen_Ginsberg	3	(803)	4	(603)	2	(305)	2	(444)	6792.57	(767)	0.00033	(870)
Tim_Berners-Lee	0	(2528)	1	(1804)	0	(2330)	1	(1316)	0.00	(1843)	0.00005	(2680)
Elisabet_II	30	(10)	33	(4)	3	(39)	3	(39)	306072.06	(7)	0.00167	(66)
L._Ron_Hubbard	1	(1694)	1	(1804)	1	(1127)	1	(1316)	877.19	(1483)	0.00024	(1190)
Jonathan_Swift	2	(1180)	2	(1229)	1	(1127)	1	(1316)	2646.03	(1166)	0.00034	(853)
Aleksanteri_II_(Venäjä)	1	(1694)	3	(835)	0	(2330)	1	(1316)	9.00	(1781)	0.00006	(2458)
Fjodor_Dostojevski	12	(91)	0	(2670)	2	(305)	0	(2545)	0.00	(1843)	0.00057	(435)
Nikolai_I	6	(331)	1	(1804)	1	(1127)	0	(2545)	730.66	(1512)	0.00073	(302)
Ivan_Turgenev	3	(803)	3	(835)	1	(1127)	1	(1316)	160.23	(1648)	0.00015	(1612)
Novak_Đoković	12	(91)	20	(20)	4	(17)	5	(1)	76186.66	(82)	0.00036	(805)
Ernests_Gulbis	1	(1694)	4	(603)	1	(1127)	3	(39)	0.00	(1843)	0.00007	(2363)
Jürgen_Melzer	3	(803)	7	(246)	3	(39)	5	(1)	4.88	(1797)	0.00012	(1826)
Serena_Williams	16	(53)	10	(128)	6	(1)	5	(1)	7397.75	(714)	0.00052	(542)
Andy_Murray	9	(159)	10	(128)	4	(17)	5	(1)	2549.17	(1178)	0.00031	(940)
Jelena_Janković	13	(80)	15	(41)	6	(1)	5	(1)	16160.10	(402)	0.00045	(637)
Ana_Ivanović	11	(111)	20	(20)	6	(1)	5	(1)	41206.93	(158)	0.00039	(728)
David_Ferrer	8	(201)	7	(246)	4	(17)	5	(1)	30.05	(1746)	0.00025	(1148)
Fernando_González	9	(159)	9	(161)	4	(17)	5	(1)	1441.28	(1400)	0.00032	(909)
Marat_Safin	7	(260)	6	(326)	4	(17)	3	(39)	6933.37	(753)	0.00070	(331)
Mihail_Južnyi	7	(260)	3	(835)	4	(17)	3	(39)	3428.75	(1079)	0.00032	(884)
Guillermo_Cañas	6	(331)	7	(246)	4	(17)	4	(26)	757.40	(1506)	0.00021	(1310)
James_Blake	8	(201)	4	(603)	4	(17)	2	(444)	814.90	(1494)	0.00032	(903)
Rafael_Nadal	16	(53)	16	(34)	4	(17)	5	(1)	111056.01	(47)	0.00074	(297)
Tommy_Haas	3	(803)	11	(94)	3	(39)	5	(1)	34.88	(1742)	0.00013	(1781)
Jo-Wilfried_Tsonga	5	(441)	12	(72)	4	(17)	5	(1)	18.04	(1761)	0.00016	(1563)
Lleyton_Hewitt	9	(159)	1	(1804)	4	(17)	1	(1316)	2065.88	(1274)	0.00052	(481)
Roger_Federer	20	(36)	23	(11)	4	(17)	5	(1)	28567.99	(231)	0.00107	(160)
David_Nalbandian	9	(159)	7	(246)	4	(17)	5	(1)	846.98	(1491)	0.00041	(704)
Andy_Roddick	15	(62)	7	(246)	4	(17)	3	(39)	77600.80	(79)	0.00054	(454)
Ludwig_van_Beethoven	17	(47)	8	(193)	3	(39)	2	(444)	37437.99	(173)	0.00136	(103)
Franz_Schubert	5	(441)	9	(161)	3	(39)	3	(39)	17001.72	(378)	0.00036	(806)
Gioachino_Rossini	4	(576)	2	(1229)	2	(305)	1	(1316)	7175.93	(728)	0.00033	(871)
Joseph_Haydn	8	(201)	2	(1229)	2	(305)	2	(444)	2139.96	(1260)	0.00073	(303)
Johann_Nepomuk_Hummel	1	(1694)	1	(1804)	1	(1127)	1	(1316)	132.48	(1672)	0.00020	(1325)
Heinrich_Heine	5	(441)	1	(1804)	3	(39)	1	(1316)	10490.04	(568)	0.00044	(648)
Carl_Philipp_Emanuel_Bach	2	(1180)	2	(1229)	2	(305)	2	(444)	5494.57	(880)	0.00047	(601)
Antonio_Salieri	3	(803)	4	(603)	3	(39)	2	(444)	6802.61	(764)	0.00029	(1011)
Johann_Wolfgang_von_Goethe	13	(80)	2	(1229)	3	(39)	1	(1316)	32650.70	(202)	0.00106	(163)
Christina_Aguilera	10	(134)	9	(161)	3	(39)	3	(39)	18941.32	(342)	0.00057	(428)
Justin_Timberlake	12	(91)	12	(72)	3	(39)	3	(39)	34680.30	(186)	0.00068	(345)
Kelly_Clarkson	4	(576)	2	(1229)	2	(305)	1	(1316)	2938.95	(1132)	0.00016	(1574)
Britney_Spears	15	(62)	6	(326)	3	(39)	3	(39)	47157.12	(138)	0.00079	(268)
Billie_Holiday	2	(1180)	2	(1229)	2	(305)	1	(1316)	2764.33	(1147)	0.00012	(1858)
Ricky_Martin	2	(1180)	1	(1804)	1	(1127)	1	(1316)	54.91	(1728)	0.00015	(1601)
Ella_Fitzgerald	1	(1694)	0	(2670)	1	(1127)	0	(2545)	0.00	(1843)	0.00011	(1927)
Whitney_Houston	7	(260)	6	(326)	3	(39)	2	(444)	7684.54	(702)	0.00031	(943)
Pink	4	(576)	10	(128)	2	(305)	3	(39)	10134.40	(588)	0.00026	(1105)
Giorgio_Vasari	6	(331)	3	(835)	2	(305)	1	(1316)	5157.60	(910)	0.00066	(360)
Michelangelo	13	(80)	4	(603)	2	(305)	2	(444)	55748.68	(116)	0.00356	(12)
Cimabue	2	(1180)	2	(1229)	1	(1127)	1	(1316)	379.95	(1579)	0.00030	(953)
Cosimo_de’_Medici	1	(1694)	0	(2670)	1	(1127)	0	(2545)	0.00	(1843)	0.00025	(1149)
Mihail_Kalinin	1	(1694)	3	(835)	1	(1127)	2	(444)	0.00	(1843)	0.00021	(1320)
Vladimir_Lenin	17	(47)	20	(20)	3	(39)	3	(39)	206561.75	(15)	0.00147	(90)
Nikolai_Buharin	3	(803)	1	(1804)	2	(305)	1	(1316)	46.52	(1737)	0.00034	(855)
Richard_Attenborough	7	(260)	4	(603)	2	(305)	2	(444)	29874.62	(220)	0.00105	(172)
David_Attenborough	1	(1694)	1	(1804)	1	(1127)	1	(1316)	0.00	(1843)	0.00029	(1003)
Steven_Spielberg	22	(24)	8	(193)	3	(39)	3	(39)	84169.77	(71)	0.00203	(47)
Charles_Chaplin	12	(91)	18	(26)	3	(39)	3	(39)	233856.08	(11)	0.00124	(124)
Robert_Downey_Jr.	3	(803)	0	(2670)	2	(305)	0	(2545)	0.00	(1843)	0.00038	(760)
Juhana_III_Sobieski	1	(1694)	2	(1229)	1	(1127)	1	(1316)	7729.53	(697)	0.00020	(1336)
Autuas_Innocentius_XI	3	(803)	3	(835)	2	(305)	2	(444)	34123.27	(189)	0.00049	(572)
August_II_Väkevä	3	(803)	4	(603)	2	(305)	1	(1316)	11031.04	(551)	0.00067	(353)
Anselm_Canterburylainen	1	(1694)	6	(326)	1	(1127)	2	(444)	1150.43	(1443)	0.00006	(2420)
Pius_X	7	(260)	11	(94)	3	(39)	3	(39)	14434.07	(445)	0.00041	(708)
Klemens_XI	4	(576)	2	(1229)	2	(305)	2	(444)	22688.04	(289)	0.00130	(113)
Immanuel_Kant	26	(15)	3	(835)	2	(305)	2	(444)	48403.52	(134)	0.00112	(146)
Pierre_Abélard	3	(803)	1	(1804)	1	(1127)	1	(1316)	2173.93	(1253)	0.00010	(2059)
Aleksanteri_VI	8	(201)	4	(603)	2	(305)	2	(444)	3900.75	(1039)	0.00053	(467)
Tuomas_Akvinolainen	6	(331)	10	(128)	2	(305)	3	(39)	18671.74	(345)	0.00016	(1555)
Kenneth_Branagh	2	(1180)	3	(835)	1	(1127)	2	(444)	2172.54	(1254)	0.00013	(1738)
Emma_Thompson	4	(576)	3	(835)	2	(305)	2	(444)	13090.66	(479)	0.00020	(1369)
Reinhard_Heydrich	5	(441)	1	(1804)	2	(305)	1	(1316)	5076.57	(914)	0.00080	(265)
Prinssi_Andrew,_Yorkin_herttua	0	(2528)	3	(835)	0	(2330)	3	(39)	0.00	(1843)	0.00005	(2543)
Walesin_prinssi_Charles	8	(201)	5	(449)	2	(305)	3	(39)	3764.52	(1047)	0.00047	(611)
Prinssi_Harry	3	(803)	8	(193)	2	(305)	3	(39)	166.93	(1644)	0.00016	(1597)
Prinssi_William	4	(576)	6	(326)	2	(305)	3	(39)	4478.05	(965)	0.00028	(1022)
Cornwallin_herttuatar_Camilla	3	(803)	1	(1804)	2	(305)	1	(1316)	0.00	(1843)	0.00022	(1267)
Yrjö_VI_(Iso-Britannia)	11	(111)	7	(246)	3	(39)	3	(39)	25564.17	(252)	0.00092	(215)
Walesin_prinsessa_Diana	8	(201)	6	(326)	3	(39)	3	(39)	32137.74	(205)	0.00053	(477)
Benedictus_XV	4	(576)	10	(128)	3	(39)	3	(39)	19498.81	(328)	0.00068	(344)
Pyhä_Pius_V	4	(576)	3	(835)	2	(305)	2	(444)	3191.31	(1108)	0.00025	(1156)
Leo_XIII	8	(201)	8	(193)	3	(39)	3	(39)	41199.37	(159)	0.00043	(667)
Richard_Dawkins	3	(803)	2	(1229)	1	(1127)	1	(1316)	10390.20	(571)	0.00017	(1500)
Frans_Joosef_I	5	(441)	0	(2670)	1	(1127)	0	(2545)	0.00	(1843)	0.00078	(275)
Pius_XII	10	(134)	7	(246)	3	(39)	3	(39)	16273.90	(397)	0.00061	(397)
Jeanne_d’Arc	8	(201)	1	(1804)	3	(39)	1	(1316)	12283.95	(502)	0.00050	(559)
Pius_IX	10	(134)	9	(161)	3	(39)	3	(39)	31317.21	(210)	0.00066	(365)
Pius_XI	9	(159)	9	(161)	3	(39)	3	(39)	34825.73	(184)	0.00065	(370)
Liv_Ullmann	3	(803)	1	(1804)	2	(305)	1	(1316)	3728.14	(1049)	0.00033	(872)
Ingmar_Bergman	8	(201)	4	(603)	3	(39)	2	(444)	23103.91	(281)	0.00092	(219)
William_McKinley	4	(576)	2	(1229)	2	(305)	2	(444)	3397.16	(1084)	0.00080	(261)
Theodore_Roosevelt	11	(111)	6	(326)	3	(39)	2	(444)	46298.27	(144)	0.00305	(18)
Grover_Cleveland	4	(576)	3	(835)	2	(305)	2	(444)	8736.32	(645)	0.00082	(251)
Toshirō_Mifune	1	(1694)	2	(1229)	1	(1127)	2	(444)	34.48	(1743)	0.00010	(1991)
Akira_Kurosawa	5	(441)	7	(246)	3	(39)	3	(39)	22233.24	(294)	0.00037	(765)
Robert_Ludlum	0	(2528)	1	(1804)	0	(2330)	1	(1316)	0.00	(1843)	0.00005	(2680)
Cicciolina	0	(2528)	1	(1804)	0	(2330)	1	(1316)	0.00	(1843)	0.00005	(2680)
Jeff_Koons	1	(1694)	1	(1804)	0	(2330)	1	(1316)	2058.00	(1297)	0.00010	(2015)
Slobodan_Milošević	6	(331)	3	(835)	1	(1127)	2	(444)	15293.85	(424)	0.00050	(558)
Vojislav_Koštunica	1	(1694)	4	(603)	1	(1127)	2	(444)	7334.21	(720)	0.00020	(1337)
Franjo_Tuđman	2	(1180)	2	(1229)	1	(1127)	2	(444)	4114.00	(1019)	0.00029	(992)
Josip_Broz_Tito	8	(201)	3	(835)	2	(305)	3	(39)	16640.76	(385)	0.00081	(255)
Julio_Iglesias	0	(2528)	1	(1804)	0	(2330)	1	(1316)	0.00	(1843)	0.00005	(2680)
Diana_Ross	6	(331)	2	(1229)	2	(305)	2	(444)	2649.60	(1164)	0.00018	(1454)
Diego_Rivera	3	(803)	1	(1804)	2	(305)	1	(1316)	0.00	(1843)	0.00045	(645)
Salma_Hayek	3	(803)	7	(246)	2	(305)	2	(444)	23740.53	(273)	0.00037	(780)
Marija_Kirilenko	2	(1180)	1	(1804)	2	(305)	1	(1316)	0.00	(1843)	0.00010	(1997)
Samantha_Stosur	9	(159)	16	(34)	6	(1)	5	(1)	3307.57	(1093)	0.00052	(480)
Michael_Ballack	1	(1694)	4	(603)	1	(1127)	2	(444)	157.26	(1650)	0.00011	(1890)
Oliver_Kahn	3	(803)	3	(835)	2	(305)	2	(444)	642.28	(1528)	0.00021	(1316)
Joe_Cole	1	(1694)	1	(1804)	1	(1127)	1	(1316)	1082.50	(1457)	0.00008	(2245)
Jürgen_Klinsmann	4	(576)	3	(835)	2	(305)	2	(444)	1480.27	(1393)	0.00029	(1004)
Rudi_Völler	3	(803)	2	(1229)	1	(1127)	2	(444)	125.34	(1676)	0.00023	(1218)
Giuseppe_Verdi	6	(331)	4	(603)	2	(305)	1	(1316)	11699.20	(531)	0.00083	(245)
Enrico_Caruso	2	(1180)	1	(1804)	2	(305)	1	(1316)	0.00	(1843)	0.00030	(973)
Alessandro_Manzoni	1	(1694)	1	(1804)	1	(1127)	1	(1316)	0.00	(1843)	0.00024	(1202)
Victor_Hugo	11	(111)	1	(1804)	2	(305)	1	(1316)	11481.91	(537)	0.00095	(200)
Giorgio_de_Chirico	1	(1694)	5	(449)	1	(1127)	2	(444)	29476.32	(222)	0.00026	(1106)
Arthur_Schopenhauer	6	(331)	27	(6)	2	(305)	3	(39)	82082.44	(77)	0.00074	(294)
René_Magritte	1	(1694)	1	(1804)	1	(1127)	1	(1316)	2387.06	(1198)	0.00010	(1999)
Nicolae_Ceaușescu	1	(1694)	2	(1229)	1	(1127)	2	(444)	334.89	(1589)	0.00013	(1735)
Ion_Iliescu	2	(1180)	3	(835)	1	(1127)	2	(444)	4456.24	(969)	0.00027	(1055)
Luiz_Inácio_Lula_da_Silva	4	(576)	4	(603)	1	(1127)	2	(444)	17549.48	(364)	0.00042	(685)
Recep_Tayyip_Erdoğan	2	(1180)	1	(1804)	1	(1127)	1	(1316)	4014.94	(1029)	0.00019	(1422)
Dilma_Rousseff	1	(1694)	1	(1804)	1	(1127)	1	(1316)	0.00	(1843)	0.00015	(1651)
Bernard_Herrmann	1	(1694)	3	(835)	1	(1127)	2	(444)	4362.16	(987)	0.00014	(1689)
Orson_Welles	11	(111)	3	(835)	2	(305)	1	(1316)	15341.88	(421)	0.00076	(286)
Steve_Vai	5	(441)	2	(1229)	2	(305)	2	(444)	5217.66	(904)	0.00018	(1471)
Boris_Karloff	2	(1180)	0	(2670)	1	(1127)	0	(2545)	0.00	(1843)	0.00011	(1936)
Stephen_Fry	3	(803)	1	(1804)	2	(305)	1	(1316)	801.39	(1498)	0.00253	(32)
Hugh_Laurie	3	(803)	1	(1804)	2	(305)	1	(1316)	77.62	(1714)	0.00239	(34)
Georges_Pompidou	6	(331)	2	(1229)	3	(39)	2	(444)	1146.22	(1444)	0.00063	(386)
Valéry_Giscard_d'Estaing	8	(201)	7	(246)	3	(39)	3	(39)	14755.17	(440)	0.00086	(232)
Alejandro_Toledo	3	(803)	3	(835)	2	(305)	3	(39)	1061.58	(1463)	0.00016	(1593)
Ricardo_Lagos	3	(803)	6	(326)	2	(305)	3	(39)	16178.53	(400)	0.00023	(1246)
Alberto_Fujimori	3	(803)	5	(449)	2	(305)	3	(39)	5473.31	(882)	0.00020	(1340)
Alan_García	2	(1180)	4	(603)	2	(305)	3	(39)	1789.37	(1354)	0.00013	(1724)
John_C._Breckinridge	1	(1694)	3	(835)	1	(1127)	2	(444)	0.00	(1843)	0.00024	(1185)
Franklin_Pierce	4	(576)	3	(835)	2	(305)	2	(444)	5160.39	(909)	0.00060	(407)
James_Buchanan	3	(803)	5	(449)	2	(305)	2	(444)	9210.11	(626)	0.00105	(169)
Abraham_Lincoln	15	(62)	4	(603)	2	(305)	2	(444)	40788.48	(160)	0.00331	(14)
Eminem	9	(159)	3	(835)	3	(39)	3	(39)	49827.14	(130)	0.00036	(795)
Justin_Bieber	4	(576)	7	(246)	2	(305)	3	(39)	34791.55	(185)	0.00027	(1072)
Lady_Gaga	5	(441)	11	(94)	2	(305)	3	(39)	65793.73	(104)	0.00048	(580)
Dr._Dre	6	(331)	5	(449)	3	(39)	3	(39)	27724.06	(238)	0.00036	(810)
Jean-François_Lyotard	0	(2528)	1	(1804)	0	(2330)	1	(1316)	0.00	(1843)	0.00005	(2680)
Björk	4	(576)	2	(1229)	2	(305)	2	(444)	3400.96	(1082)	0.00018	(1477)
Timbaland	9	(159)	11	(94)	3	(39)	3	(39)	88069.92	(65)	0.00052	(540)
Giovanni_Pico_della_Mirandola	1	(1694)	4	(603)	1	(1127)	2	(444)	14431.30	(446)	0.00013	(1772)
Girolamo_Savonarola	3	(803)	3	(835)	2	(305)	2	(444)	2835.18	(1140)	0.00026	(1093)
Aristoteles	15	(62)	21	(17)	2	(305)	3	(39)	74708.71	(83)	0.00045	(633)
Platon	25	(17)	22	(13)	2	(305)	3	(39)	133563.46	(38)	0.00092	(218)
James_Milner	1	(1694)	2	(1229)	1	(1127)	1	(1316)	6830.19	(763)	0.00009	(2129)
Graeme_Souness	3	(803)	1	(1804)	1	(1127)	1	(1316)	6169.00	(830)	0.00045	(641)
Bobby_Robson	7	(260)	6	(326)	2	(305)	2	(444)	83756.07	(74)	0.00181	(58)
Otto_IV	1	(1694)	1	(1804)	0	(2330)	1	(1316)	4.00	(1800)	0.00006	(2485)
Henrik_Leijona	2	(1180)	1	(1804)	1	(1127)	1	(1316)	6.00	(1789)	0.00026	(1123)
Alfredo_di_Stéfano	2	(1180)	5	(449)	1	(1127)	2	(444)	28151.79	(236)	0.00015	(1646)
Diego_Maradona	7	(260)	5	(449)	2	(305)	2	(444)	105308.90	(50)	0.00087	(228)
Pelé	11	(111)	6	(326)	2	(305)	2	(444)	89135.49	(64)	0.00098	(189)
Ferenc_Puskás	1	(1694)	1	(1804)	1	(1127)	1	(1316)	0.00	(1843)	0.00008	(2236)
Michel_Platini	4	(576)	1	(1804)	1	(1127)	0	(2545)	2354.00	(1205)	0.00040	(716)
Gilles_Villeneuve	1	(1694)	1	(1804)	1	(1127)	1	(1316)	0.00	(1843)	0.00017	(1498)
Jacques_Villeneuve	9	(159)	4	(603)	3	(39)	3	(39)	5378.42	(891)	0.00054	(452)
Kustaa_V	5	(441)	1	(1804)	2	(305)	1	(1316)	7990.66	(680)	0.00059	(412)
Oskar_II	3	(803)	3	(835)	2	(305)	2	(444)	8346.79	(663)	0.00088	(223)
Orhan_Pamuk	0	(2528)	1	(1804)	0	(2330)	1	(1316)	0.00	(1843)	0.00005	(2680)
Salman_Rushdie	3	(803)	3	(835)	2	(305)	2	(444)	13887.91	(457)	0.00016	(1558)
Goldie_Hawn	2	(1180)	1	(1804)	2	(305)	1	(1316)	1615.98	(1376)	0.00077	(284)
Kate_Hudson	2	(1180)	1	(1804)	2	(305)	1	(1316)	97.83	(1698)	0.00077	(279)
Vangelis	0	(2528)	2	(1229)	0	(2330)	0	(2545)	0.00	(1843)	0.00005	(2965)
Oliver_Stone	9	(159)	1	(1804)	2	(305)	0	(2545)	2288.97	(1237)	0.00039	(729)
Tiësto	1	(1694)	0	(2670)	0	(2330)	0	(2545)	0.00	(1843)	0.00007	(2270)
Augustus	8	(201)	11	(94)	2	(305)	3	(39)	35541.74	(181)	0.00057	(434)
Vergilius	4	(576)	4	(603)	2	(305)	2	(444)	28974.42	(226)	0.00047	(609)
Ovidius	2	(1180)	1	(1804)	1	(1127)	1	(1316)	527.00	(1548)	0.00010	(1986)
Claudius	4	(576)	5	(449)	2	(305)	2	(444)	2644.53	(1167)	0.00058	(414)
Trajanus	4	(576)	7	(246)	2	(305)	2	(444)	4795.10	(934)	0.00057	(424)
Tiberius	2	(1180)	4	(603)	2	(305)	2	(444)	6997.73	(747)	0.00025	(1161)
Horatius	2	(1180)	0	(2670)	2	(305)	0	(2545)	0.00	(1843)	0.00013	(1719)
Marcus_Antonius	5	(441)	10	(128)	3	(39)	3	(39)	46890.85	(139)	0.00045	(642)
Plutarkhos	11	(111)	3	(835)	3	(39)	2	(444)	17620.94	(361)	0.00151	(88)
George_Orwell	4	(576)	2	(1229)	2	(305)	2	(444)	19102.24	(338)	0.00057	(431)
Trygve_Lie	2	(1180)	3	(835)	2	(305)	2	(444)	8677.37	(646)	0.00026	(1112)
Édouard_Daladier	1	(1694)	1	(1804)	1	(1127)	1	(1316)	228.10	(1624)	0.00020	(1359)
Nikolai_II	16	(53)	5	(449)	3	(39)	3	(39)	63098.89	(106)	0.00169	(64)
Jadranka_Kosor	0	(2528)	1	(1804)	0	(2330)	1	(1316)	0.00	(1843)	0.00005	(2680)
Stjepan_Mesić	1	(1694)	1	(1804)	0	(2330)	1	(1316)	2058.00	(1295)	0.00010	(2015)
Klaudios_Ptolemaios	0	(2528)	1	(1804)	0	(2330)	1	(1316)	0.00	(1843)	0.00005	(2680)
Nikolaus_Kopernikus	3	(803)	3	(835)	2	(305)	2	(444)	2865.53	(1137)	0.00023	(1245)
Claude_Monet	4	(576)	2	(1229)	2	(305)	1	(1316)	1523.09	(1386)	0.00027	(1053)
Pierre-Auguste_Renoir	5	(441)	1	(1804)	2	(305)	1	(1316)	177.00	(1642)	0.00310	(15)
Auguste_Rodin	3	(803)	0	(2670)	1	(1127)	0	(2545)	0.00	(1843)	0.00036	(807)
Tori_Amos	3	(803)	7	(246)	2	(305)	3	(39)	10096.08	(590)	0.00012	(1849)
Leonard_Cohen	5	(441)	6	(326)	1	(1127)	2	(444)	12535.87	(495)	0.00023	(1239)
Neil_Gaiman	3	(803)	5	(449)	2	(305)	1	(1316)	4563.62	(953)	0.00012	(1810)
Joni_Mitchell	4	(576)	2	(1229)	2	(305)	1	(1316)	4543.90	(955)	0.00030	(955)
Viktor_Juštšenko	5	(441)	7	(246)	2	(305)	2	(444)	16070.78	(405)	0.00032	(886)
Viktor_Janukovytš	4	(576)	4	(603)	2	(305)	2	(444)	468.61	(1560)	0.00023	(1236)
Viktor_Tšernomyrdin	2	(1180)	4	(603)	2	(305)	2	(444)	12097.65	(514)	0.00038	(759)
Dmitri_Medvedev	11	(111)	1	(1804)	2	(305)	1	(1316)	6181.34	(822)	0.00072	(313)
Julija_Tymošenko	2	(1180)	4	(603)	2	(305)	2	(444)	1301.70	(1418)	0.00014	(1659)
Leonid_Kutšma	3	(803)	2	(1229)	2	(305)	2	(444)	0.00	(1843)	0.00018	(1468)
Mikheil_Saakašvili	3	(803)	2	(1229)	2	(305)	2	(444)	197.34	(1639)	0.00012	(1850)
Patrick_Dempsey	0	(2528)	3	(835)	0	(2330)	1	(1316)	0.00	(1843)	0.00005	(2543)
Jennifer_Connelly	2	(1180)	3	(835)	1	(1127)	1	(1316)	3593.18	(1063)	0.00009	(2170)
Hilary_Swank	2	(1180)	0	(2670)	1	(1127)	0	(2545)	0.00	(1843)	0.00011	(1908)
Giuseppe_Garibaldi	3	(803)	2	(1229)	1	(1127)	1	(1316)	4481.84	(964)	0.00019	(1408)
Giuseppe_Mazzini	1	(1694)	0	(2670)	1	(1127)	0	(2545)	0.00	(1843)	0.00014	(1712)
Empedokles	0	(2528)	2	(1229)	0	(2330)	2	(444)	0.00	(1843)	0.00005	(2965)
Friedrich_Hölderlin	5	(441)	2	(1229)	2	(305)	2	(444)	1751.53	(1363)	0.00024	(1187)
Fanny_Mendelssohn	0	(2528)	1	(1804)	0	(2330)	1	(1316)	0.00	(1843)	0.00005	(2680)
Felix_Mendelssohn_Bartholdy	3	(803)	2	(1229)	2	(305)	2	(444)	4610.33	(949)	0.00042	(681)
Georg_Friedrich_Händel	7	(260)	3	(835)	2	(305)	2	(444)	25137.87	(258)	0.00050	(563)
Pat_Nixon	2	(1180)	1	(1804)	2	(305)	1	(1316)	0.00	(1843)	0.00067	(351)
Richard_Nixon	40	(5)	12	(72)	3	(39)	3	(39)	191433.76	(18)	0.00755	(2)
Michael_Curtiz	1	(1694)	2	(1229)	1	(1127)	2	(444)	89.20	(1706)	0.00007	(2407)
Pete_Sampras	8	(201)	3	(835)	4	(17)	2	(444)	20937.92	(306)	0.00108	(154)
Andre_Agassi	9	(159)	5	(449)	4	(17)	2	(444)	139862.55	(36)	0.00105	(168)
Ivan_Lendl	5	(441)	3	(835)	3	(39)	2	(444)	6708.58	(780)	0.00105	(167)
Karl_Jaspers	2	(1180)	1	(1804)	2	(305)	1	(1316)	0.00	(1843)	0.00008	(2246)
Hannah_Arendt	3	(803)	11	(94)	2	(305)	3	(39)	11755.10	(530)	0.00018	(1462)
George_S._Patton	3	(803)	2	(1229)	1	(1127)	2	(444)	7128.01	(735)	0.00047	(590)
Jean-Paul_Marat	1	(1694)	1	(1804)	1	(1127)	1	(1316)	0.00	(1843)	0.00013	(1792)
Charlotte_Corday	1	(1694)	2	(1229)	1	(1127)	1	(1316)	2058.00	(1297)	0.00016	(1544)
Svetlana_Kuznetsova	16	(53)	13	(64)	6	(1)	5	(1)	12502.31	(496)	0.00063	(390)
Martina_Navrátilová	4	(576)	2	(1229)	3	(39)	2	(444)	16570.88	(388)	0.00039	(730)
Daniela_Hantuchová	7	(260)	5	(449)	6	(1)	4	(26)	804.62	(1496)	0.00029	(986)
Venus_Williams	11	(111)	6	(326)	6	(1)	4	(26)	4.61	(1798)	0.00037	(767)
Dinara_Safina	10	(134)	8	(193)	6	(1)	5	(1)	1009.83	(1469)	0.00042	(682)
Marion_Bartoli	8	(201)	8	(193)	6	(1)	4	(26)	109.60	(1689)	0.00034	(840)
Jelena_Dementjeva	9	(159)	11	(94)	6	(1)	5	(1)	233.87	(1623)	0.00032	(887)
Justine_Henin	11	(111)	3	(835)	6	(1)	3	(39)	106.55	(1691)	0.00042	(691)
Marija_Šarapova	10	(134)	11	(94)	6	(1)	5	(1)	223.83	(1626)	0.00037	(766)
Amélie_Mauresmo	5	(441)	12	(72)	4	(17)	5	(1)	1919.65	(1343)	0.00018	(1476)
Emil_Nolde	0	(2528)	2	(1229)	0	(2330)	1	(1316)	0.00	(1843)	0.00005	(2965)
Vincent_van_Gogh	6	(331)	1	(1804)	1	(1127)	1	(1316)	6718.33	(778)	0.00040	(710)
Joseph_Goebbels	12	(91)	8	(193)	3	(39)	3	(39)	36941.34	(174)	0.00136	(104)
Johan_Cruijff	8	(201)	2	(1229)	2	(305)	2	(444)	24775.15	(262)	0.00086	(235)
Luis_Aragonés	4	(576)	4	(603)	2	(305)	2	(444)	8552.25	(654)	0.00066	(366)
Spiro_Agnew	4	(576)	1	(1804)	3	(39)	1	(1316)	28.49	(1747)	0.00129	(116)
Aleksandr_Solženitsyn	3	(803)	18	(26)	2	(305)	3	(39)	66034.03	(100)	0.00032	(894)
Leonid_Brežnev	11	(111)	11	(94)	3	(39)	3	(39)	55493.16	(119)	0.00092	(214)
Władysław_Gomułka	3	(803)	0	(2670)	1	(1127)	0	(2545)	0.00	(1843)	0.00027	(1067)
Kliment_Vorošilov	3	(803)	8	(193)	3	(39)	4	(26)	2348.90	(1229)	0.00046	(630)
Dwight_D._Eisenhower	15	(62)	7	(246)	3	(39)	3	(39)	34037.42	(190)	0.00276	(25)
Imre_Nagy	2	(1180)	0	(2670)	1	(1127)	0	(2545)	0.00	(1843)	0.00029	(984)
Michael_Faraday	3	(803)	1	(1804)	1	(1127)	1	(1316)	2357.00	(1202)	0.00111	(149)
Humphry_Davy	1	(1694)	1	(1804)	1	(1127)	1	(1316)	0.00	(1843)	0.00105	(171)
Stendhal	4	(576)	1	(1804)	2	(305)	1	(1316)	7860.50	(690)	0.00031	(934)
Napoleon_I	38	(7)	12	(72)	3	(39)	2	(444)	248620.06	(9)	0.00555	(4)
Hillary_Clinton	9	(159)	8	(193)	3	(39)	3	(39)	19112.28	(337)	0.00094	(203)
Bill_Clinton	27	(14)	6	(326)	3	(39)	3	(39)	92277.87	(60)	0.00422	(7)
Rudolph_Giuliani	3	(803)	3	(835)	2	(305)	3	(39)	2194.28	(1248)	0.00030	(968)
Condoleezza_Rice	10	(134)	4	(603)	3	(39)	3	(39)	5532.30	(874)	0.00095	(198)
John_Edwards	2	(1180)	1	(1804)	2	(305)	1	(1316)	0.00	(1843)	0.00020	(1347)
Monica_Lewinsky	2	(1180)	1	(1804)	2	(305)	1	(1316)	0.00	(1843)	0.00079	(269)
Walter_Mondale	5	(441)	4	(603)	3	(39)	3	(39)	2229.26	(1241)	0.00116	(141)
Pedro_I	4	(576)	1	(1804)	0	(2330)	1	(1316)	6174.00	(826)	0.00020	(1362)
Warren_Beatty	6	(331)	2	(1229)	2	(305)	1	(1316)	5428.94	(886)	0.00106	(166)
Sean_Penn	6	(331)	6	(326)	2	(305)	3	(39)	29208.09	(223)	0.00038	(757)
Don_McLean	2	(1180)	2	(1229)	1	(1127)	1	(1316)	1926.47	(1341)	0.00017	(1491)
E._E._Cummings	0	(2528)	1	(1804)	0	(2330)	1	(1316)	0.00	(1843)	0.00005	(2680)
David_Lean	2	(1180)	1	(1804)	1	(1127)	1	(1316)	4380.31	(984)	0.00018	(1456)
Noël_Coward	1	(1694)	5	(449)	1	(1127)	2	(444)	6435.31	(800)	0.00021	(1288)
Milan_Kundera	4	(576)	1	(1804)	1	(1127)	0	(2545)	2354.00	(1205)	0.00025	(1160)
Leoš_Janáček	1	(1694)	0	(2670)	1	(1127)	0	(2545)	0.00	(1843)	0.00028	(1049)
Paul_Klee	1	(1694)	3	(835)	1	(1127)	2	(444)	6048.24	(836)	0.00028	(1018)
Wassily_Kandinsky	5	(441)	4	(603)	1	(1127)	1	(1316)	19602.21	(324)	0.00042	(677)
Fredrik_VI	2	(1180)	3	(835)	2	(305)	2	(444)	16342.73	(396)	0.00050	(564)
Kristian_VII	2	(1180)	2	(1229)	2	(305)	1	(1316)	13052.88	(480)	0.00066	(361)
Kristian_VIII	2	(1180)	3	(835)	2	(305)	2	(444)	1856.55	(1347)	0.00048	(578)
Ayn_Rand	1	(1694)	6	(326)	0	(2330)	2	(444)	859.46	(1488)	0.00006	(2461)
Friedrich_Nietzsche	12	(91)	2	(1229)	2	(305)	2	(444)	42341.47	(157)	0.00049	(573)
Alan_Greenspan	3	(803)	3	(835)	1	(1127)	2	(444)	1657.85	(1374)	0.00035	(812)
Gary_Cooper	5	(441)	3	(835)	2	(305)	2	(444)	11917.74	(522)	0.00047	(608)
Adam_Copeland	0	(2528)	11	(94)	0	(2330)	1	(1316)	0.00	(1843)	0.00005	(2965)
Shawn_Michaels	5	(441)	0	(2670)	1	(1127)	0	(2545)	0.00	(1843)	0.00015	(1606)
Chris_Benoit	5	(441)	2	(1229)	1	(1127)	1	(1316)	33444.95	(193)	0.00024	(1172)
John_Morrison_(showpainija)	2	(1180)	6	(326)	1	(1127)	1	(1316)	32842.95	(200)	0.00017	(1532)
Ric_Flair	3	(803)	0	(2670)	1	(1127)	0	(2545)	0.00	(1843)	0.00009	(2097)
The_Undertaker	5	(441)	4	(603)	1	(1127)	1	(1316)	4709.83	(939)	0.00012	(1806)
CM_Punk	3	(803)	0	(2670)	1	(1127)	0	(2545)	0.00	(1843)	0.00019	(1398)
Chris_Jericho	3	(803)	6	(326)	1	(1127)	1	(1316)	4704.00	(945)	0.00009	(2137)
Kurt_Angle	2	(1180)	3	(835)	1	(1127)	1	(1316)	0.33	(1840)	0.00007	(2347)
Triple_H	3	(803)	9	(161)	1	(1127)	1	(1316)	3388.83	(1085)	0.00010	(2052)
John_Cena	5	(441)	0	(2670)	1	(1127)	0	(2545)	0.00	(1843)	0.00015	(1624)
Randy_Orton	5	(441)	1	(1804)	1	(1127)	1	(1316)	26569.95	(247)	0.00016	(1561)
Ignatios	0	(2528)	1	(1804)	0	(2330)	1	(1316)	0.00	(1843)	0.00005	(2680)
Jefferson_Davis	3	(803)	1	(1804)	2	(305)	1	(1316)	4078.14	(1023)	0.00021	(1314)
James_Lovell	0	(2528)	3	(835)	0	(2330)	1	(1316)	0.00	(1843)	0.00005	(2543)
Alan_Shepard	2	(1180)	1	(1804)	0	(2330)	1	(1316)	2489.71	(1185)	0.00011	(1891)
Tom_Hanks	7	(260)	2	(1229)	2	(305)	1	(1316)	4517.39	(959)	0.00064	(379)
Iker_Casillas	2	(1180)	1	(1804)	2	(305)	0	(2545)	2352.00	(1225)	0.00032	(911)
David_Villa	2	(1180)	7	(246)	2	(305)	2	(444)	35430.44	(182)	0.00012	(1854)
Ronaldo	3	(803)	5	(449)	2	(305)	2	(444)	15639.50	(413)	0.00022	(1256)
Luís_Figo	3	(803)	0	(2670)	2	(305)	0	(2545)	0.00	(1843)	0.00014	(1694)
Gerd_Müller	3	(803)	2	(1229)	2	(305)	2	(444)	2799.28	(1144)	0.00024	(1210)
Cristiano_Ronaldo	11	(111)	10	(128)	2	(305)	2	(444)	212968.44	(13)	0.00046	(620)
Michael_Owen	3	(803)	1	(1804)	2	(305)	0	(2545)	2344.67	(1231)	0.00014	(1711)
Karim_Benzema	1	(1694)	0	(2670)	1	(1127)	0	(2545)	0.00	(1843)	0.00008	(2252)
Fernando_Torres	3	(803)	5	(449)	2	(305)	2	(444)	30429.18	(217)	0.00024	(1196)
Michael_Laudrup	1	(1694)	1	(1804)	1	(1127)	1	(1316)	580.62	(1536)	0.00008	(2252)
Kaká	3	(803)	2	(1229)	2	(305)	1	(1316)	29018.80	(225)	0.00011	(1874)
Michael_Crichton	2	(1180)	2	(1229)	2	(305)	1	(1316)	3530.68	(1067)	0.00039	(744)
Robert_Wise	1	(1694)	1	(1804)	1	(1127)	1	(1316)	304.08	(1601)	0.00023	(1250)
Rafael_Leónidas_Trujillo	1	(1694)	7	(246)	1	(1127)	3	(39)	900.42	(1480)	0.00009	(2155)
Fidel_Castro	18	(40)	10	(128)	3	(39)	3	(39)	145707.16	(33)	0.00153	(82)
Mario_Vargas_Llosa	3	(803)	4	(603)	2	(305)	3	(39)	5430.63	(885)	0.00016	(1540)
Cordell_Hull	2	(1180)	0	(2670)	1	(1127)	0	(2545)	0.00	(1843)	0.00030	(972)
Mary_Shelley	3	(803)	2	(1229)	2	(305)	1	(1316)	2589.07	(1172)	0.00025	(1142)
Mary_Wollstonecraft	3	(803)	1	(1804)	2	(305)	1	(1316)	0.00	(1843)	0.00028	(1039)
William_Godwin	4	(576)	4	(603)	2	(305)	1	(1316)	323.16	(1595)	0.00045	(644)
Jawaharlal_Nehru	5	(441)	8	(193)	2	(305)	3	(39)	12877.72	(484)	0.00027	(1074)
Clement_Attlee	4	(576)	2	(1229)	2	(305)	2	(444)	7437.02	(711)	0.00038	(749)
Muhammad_Ali_Jinnah	2	(1180)	2	(1229)	2	(305)	2	(444)	659.12	(1526)	0.00009	(2158)
Indira_Gandhi	2	(1180)	5	(449)	2	(305)	2	(444)	7144.09	(733)	0.00013	(1757)
Mahatma_Gandhi	9	(159)	6	(326)	2	(305)	2	(444)	25503.85	(253)	0.00069	(340)
Francisco_I._Madero	3	(803)	3	(835)	2	(305)	2	(444)	527.41	(1547)	0.00028	(1051)
Mika_Häkkinen	3	(803)	5	(449)	3	(39)	3	(39)	271.97	(1609)	0.00026	(1129)
Michael_Schumacher	13	(80)	13	(64)	3	(39)	3	(39)	31618.49	(207)	0.00072	(310)
Ayrton_Senna	8	(201)	7	(246)	3	(39)	3	(39)	16200.22	(399)	0.00073	(309)
David_Coulthard	6	(331)	2	(1229)	3	(39)	1	(1316)	12429.08	(499)	0.00064	(380)
Kimi_Räikkönen	4	(576)	7	(246)	3	(39)	3	(39)	441.62	(1566)	0.00018	(1478)
Albert_Suuri	1	(1694)	2	(1229)	1	(1127)	2	(444)	281.26	(1607)	0.00007	(2402)
Paavali	12	(91)	5	(449)	2	(305)	2	(444)	25314.22	(255)	0.00101	(182)
Duns_Scotus	3	(803)	7	(246)	2	(305)	3	(39)	8191.56	(671)	0.00010	(2063)
Umberto_Eco	2	(1180)	2	(1229)	1	(1127)	1	(1316)	3207.54	(1103)	0.00014	(1668)
Dante_Alighieri	17	(47)	3	(835)	2	(305)	1	(1316)	24995.74	(259)	0.00087	(230)
Neitsyt_Maria	12	(91)	6	(326)	3	(39)	2	(444)	26887.79	(245)	0.00079	(273)
Ariel_Sharon	8	(201)	6	(326)	3	(39)	3	(39)	8214.02	(669)	0.00082	(252)
Jitzhak_Rabin	6	(331)	5	(449)	3	(39)	3	(39)	9044.53	(629)	0.00057	(432)
Benjamin_Netanjahu	6	(331)	7	(246)	3	(39)	3	(39)	20928.19	(307)	0.00059	(410)
Ehud_Barak	4	(576)	2	(1229)	3	(39)	2	(444)	1628.51	(1375)	0.00039	(745)
Ehud_Olmert	3	(803)	5	(449)	2	(305)	3	(39)	404.26	(1572)	0.00029	(991)
Mary_Todd_Lincoln	1	(1694)	1	(1804)	1	(1127)	1	(1316)	0.00	(1843)	0.00080	(263)
Gustave_Flaubert	4	(576)	3	(835)	2	(305)	1	(1316)	5668.60	(864)	0.00019	(1388)
Henry_James	4	(576)	1	(1804)	2	(305)	1	(1316)	130.99	(1673)	0.00294	(20)
Erich_Ludendorff	2	(1180)	3	(835)	2	(305)	2	(444)	2.60	(1812)	0.00063	(388)
Heinz_Guderian	6	(331)	1	(1804)	2	(305)	1	(1316)	4348.84	(988)	0.00086	(233)
Paul_von_Hindenburg	10	(134)	4	(603)	3	(39)	2	(444)	11647.16	(533)	0.00152	(85)
Edvard_VII	10	(134)	1	(1804)	3	(39)	1	(1316)	530.90	(1546)	0.00124	(122)
Prinssi_Philip,_Edinburghin_herttua	3	(803)	2	(1229)	2	(305)	2	(444)	46.12	(1738)	0.00016	(1576)
Yrjö_V_(Iso-Britannia)	15	(62)	3	(835)	3	(39)	2	(444)	14984.99	(433)	0.00228	(38)
Edvard_VIII	8	(201)	3	(835)	3	(39)	2	(444)	9729.88	(605)	0.00124	(123)
Giorgio_Napolitano	1	(1694)	2	(1229)	1	(1127)	2	(444)	0.00	(1843)	0.00009	(2166)
Carlo_Azeglio_Ciampi	4	(576)	2	(1229)	1	(1127)	2	(444)	20344.63	(318)	0.00016	(1571)
Romano_Prodi	5	(441)	3	(835)	1	(1127)	2	(444)	14370.26	(447)	0.00032	(891)
John_Glenn	3	(803)	1	(1804)	0	(2330)	1	(1316)	7374.30	(716)	0.00021	(1293)
Fabio_Cannavaro	3	(803)	3	(835)	1	(1127)	2	(444)	14839.33	(439)	0.00048	(577)
Paolo_Maldini	3	(803)	2	(1229)	1	(1127)	1	(1316)	12495.07	(497)	0.00028	(1033)
Ronaldinho	2	(1180)	3	(835)	1	(1127)	2	(444)	4409.00	(975)	0.00024	(1176)
Zinédine_Zidane	7	(260)	4	(603)	2	(305)	2	(444)	16491.74	(390)	0.00103	(174)
Dmitri_Mendelejev	1	(1694)	1	(1804)	1	(1127)	0	(2545)	4.00	(1800)	0.00007	(2313)
Gustav_Kirchhoff	5	(441)	0	(2670)	2	(305)	0	(2545)	0.00	(1843)	0.00047	(592)
Richard_Strauss	6	(331)	12	(72)	2	(305)	3	(39)	23616.61	(274)	0.00044	(656)
Stefan_Zweig	1	(1694)	7	(246)	1	(1127)	2	(444)	4812.95	(933)	0.00008	(2188)
Richard_Wagner	17	(47)	12	(72)	3	(39)	3	(39)	132894.06	(39)	0.00101	(184)
Franz_Liszt	14	(70)	16	(34)	3	(39)	3	(39)	73473.85	(86)	0.00080	(266)
Wolfgang_Amadeus_Mozart	12	(91)	3	(835)	2	(305)	2	(444)	20657.24	(312)	0.00070	(326)
Oscar_Wilde	10	(134)	1	(1804)	2	(305)	1	(1316)	2510.25	(1181)	0.00032	(905)
Hermann_Hesse	2	(1180)	7	(246)	1	(1127)	2	(444)	14126.14	(450)	0.00011	(1872)
Romain_Rolland	3	(803)	2	(1229)	1	(1127)	2	(444)	4762.16	(938)	0.00011	(1915)
William_Pitt_nuorempi	0	(2528)	3	(835)	0	(2330)	0	(2545)	0.00	(1843)	0.00005	(2543)
Yrjö_III_(Iso-Britannia)	5	(441)	0	(2670)	1	(1127)	0	(2545)	0.00	(1843)	0.00053	(463)
Edmund_Burke	3	(803)	1	(1804)	2	(305)	0	(2545)	1449.27	(1398)	0.00034	(838)
Rowan_Atkinson	1	(1694)	0	(2670)	0	(2330)	0	(2545)	0.00	(1843)	0.00007	(2377)
Friedrich_Schiller	2	(1180)	8	(193)	1	(1127)	2	(444)	29594.07	(221)	0.00055	(440)
Benjamin_Harrison	3	(803)	3	(835)	2	(305)	2	(444)	33778.14	(191)	0.00087	(227)
Chester_A._Arthur	2	(1180)	4	(603)	2	(305)	2	(444)	4654.16	(947)	0.00053	(469)
Bradley_Wiggins	1	(1694)	1	(1804)	1	(1127)	1	(1316)	0.00	(1843)	0.00052	(485)
Mark_Cavendish	1	(1694)	1	(1804)	1	(1127)	1	(1316)	0.00	(1843)	0.00052	(485)
Paavo_Nurmi	0	(2528)	4	(603)	0	(2330)	1	(1316)	0.00	(1843)	0.00005	(2543)
Carl_Lewis	4	(576)	2	(1229)	1	(1127)	1	(1316)	8275.05	(665)	0.00049	(575)
Mark_Spitz	2	(1180)	0	(2670)	0	(2330)	0	(2545)	0.00	(1843)	0.00012	(1837)
Michael_Phelps	1	(1694)	1	(1804)	0	(2330)	0	(2545)	0.00	(1843)	0.00006	(2430)
Elisabet_I	21	(28)	9	(161)	3	(39)	3	(39)	180790.99	(21)	0.00180	(60)
Geoffrey_Rush	2	(1180)	3	(835)	1	(1127)	1	(1316)	2489.29	(1186)	0.00011	(1877)
Charlie_Parker	5	(441)	3	(835)	2	(305)	2	(444)	15338.48	(422)	0.00023	(1242)
Dizzy_Gillespie	5	(441)	0	(2670)	2	(305)	0	(2545)	0.00	(1843)	0.00025	(1143)
Charles_Mingus	2	(1180)	4	(603)	2	(305)	2	(444)	3080.64	(1121)	0.00014	(1683)
Miles_Davis	6	(331)	4	(603)	2	(305)	2	(444)	13654.04	(466)	0.00030	(952)
Jan_Hus	3	(803)	3	(835)	2	(305)	2	(444)	17774.54	(359)	0.00058	(422)
John_Wycliffe	1	(1694)	2	(1229)	1	(1127)	2	(444)	0.00	(1843)	0.00022	(1251)
Martti_Luther	18	(40)	7	(246)	3	(39)	2	(444)	39853.88	(166)	0.00280	(23)
David_Schwimmer	1	(1694)	2	(1229)	1	(1127)	2	(444)	0.00	(1843)	0.00007	(2307)
Christian_Slater	2	(1180)	0	(2670)	1	(1127)	0	(2545)	0.00	(1843)	0.00016	(1564)
Sean_Connery	8	(201)	1	(1804)	2	(305)	1	(1316)	16038.02	(407)	0.00083	(246)
Mohammad_Khatami	4	(576)	2	(1229)	2	(305)	1	(1316)	10988.92	(553)	0.00021	(1282)
Mir-Hosein_Musavi	2	(1180)	1	(1804)	2	(305)	1	(1316)	0.00	(1843)	0.00020	(1355)
Mahmud_Ahmadinežad	6	(331)	11	(94)	2	(305)	3	(39)	28688.20	(230)	0.00062	(395)
Jim_Thorpe	0	(2528)	2	(1229)	0	(2330)	1	(1316)	0.00	(1843)	0.00005	(2965)
Burt_Lancaster	2	(1180)	1	(1804)	1	(1127)	1	(1316)	5228.05	(903)	0.00021	(1303)
Julius_Nepos	1	(1694)	1	(1804)	1	(1127)	1	(1316)	0.00	(1843)	0.00013	(1764)
Romulus_Augustulus	2	(1180)	3	(835)	1	(1127)	1	(1316)	9661.07	(611)	0.00026	(1117)
Arthur_Wellesley	2	(1180)	3	(835)	1	(1127)	1	(1316)	6320.20	(811)	0.00078	(276)
Robert_Peel	2	(1180)	1	(1804)	1	(1127)	1	(1316)	2007.63	(1331)	0.00035	(823)
Gebhard_Leberecht_von_Blücher	2	(1180)	1	(1804)	1	(1127)	1	(1316)	0.00	(1843)	0.00070	(328)
Ben_Stiller	3	(803)	1	(1804)	2	(305)	1	(1316)	142.81	(1663)	0.00037	(768)
Francesco_Petrarca	3	(803)	6	(326)	2	(305)	3	(39)	24493.07	(265)	0.00053	(466)
Markiisi_de_Sade	2	(1180)	1	(1804)	1	(1127)	1	(1316)	1117.69	(1450)	0.00017	(1535)
Giovanni_Boccaccio	3	(803)	1	(1804)	2	(305)	1	(1316)	8211.62	(670)	0.00042	(672)
Joseph_P._Kennedy	3	(803)	1	(1804)	3	(39)	1	(1316)	156.93	(1651)	0.00050	(557)
John_Connally	1	(1694)	1	(1804)	1	(1127)	1	(1316)	0.00	(1843)	0.00030	(958)
William_Howard_Taft	4	(576)	2	(1229)	3	(39)	2	(444)	3368.91	(1086)	0.00163	(71)
Robert_F._Kennedy	6	(331)	7	(246)	3	(39)	3	(39)	13227.24	(470)	0.00103	(176)
Jack_Ruby	2	(1180)	2	(1229)	2	(305)	1	(1316)	4406.00	(981)	0.00096	(195)
Lee_Harvey_Oswald	2	(1180)	1	(1804)	2	(305)	1	(1316)	0.00	(1843)	0.00073	(304)
Edward_M._Kennedy	3	(803)	6	(326)	3	(39)	3	(39)	20621.57	(313)	0.00047	(589)
Hubert_Humphrey	3	(803)	3	(835)	3	(39)	2	(444)	79.02	(1713)	0.00123	(127)
Knut_Hamsun	0	(2528)	2	(1229)	0	(2330)	0	(2545)	0.00	(1843)	0.00005	(2965)
Franz_Kafka	7	(260)	0	(2670)	1	(1127)	0	(2545)	0.00	(1843)	0.00027	(1085)
Mark_Twain	3	(803)	0	(2670)	1	(1127)	0	(2545)	0.00	(1843)	0.00014	(1716)
Caligula	6	(331)	4	(603)	2	(305)	2	(444)	3305.31	(1095)	0.00067	(355)
Nero	11	(111)	3	(835)	2	(305)	2	(444)	27638.97	(239)	0.00100	(186)
Garrincha	1	(1694)	1	(1804)	1	(1127)	1	(1316)	0.00	(1843)	0.00020	(1353)
Fredrik_Vilhelm_(Brandenburg)	0	(2528)	1	(1804)	0	(2330)	1	(1316)	0.00	(1843)	0.00005	(2680)
Vladimir_Nabokov	1	(1694)	2	(1229)	1	(1127)	0	(2545)	2565.43	(1175)	0.00011	(1928)
Nikolai_Gogol	3	(803)	2	(1229)	1	(1127)	0	(2545)	102.06	(1695)	0.00018	(1461)
Aleksandr_Puškin	6	(331)	1	(1804)	2	(305)	0	(2545)	941.13	(1474)	0.00040	(722)
Caroline_Wozniacki	6	(331)	14	(44)	6	(1)	5	(1)	323.77	(1593)	0.00026	(1097)
Berthe_Morisot	1	(1694)	1	(1804)	1	(1127)	1	(1316)	0.00	(1843)	0.00009	(2159)
Édouard_Manet	5	(441)	9	(161)	2	(305)	2	(444)	16139.25	(404)	0.00036	(786)
Tom_Waits	1	(1694)	2	(1229)	1	(1127)	1	(1316)	11163.43	(546)	0.00011	(1885)
Frank_Zappa	5	(441)	14	(44)	2	(305)	3	(39)	31919.93	(206)	0.00066	(363)
Kaarle_Suuri	6	(331)	6	(326)	2	(305)	1	(1316)	33693.37	(192)	0.00060	(406)
Klodvig	2	(1180)	1	(1804)	1	(1127)	1	(1316)	2354.00	(1205)	0.00100	(185)
Kaarle_Martel	2	(1180)	1	(1804)	2	(305)	1	(1316)	0.00	(1843)	0.00035	(828)
Pipin_Pieni	2	(1180)	2	(1229)	2	(305)	1	(1316)	2056.00	(1322)	0.00045	(631)
Ludvig_Hurskas	2	(1180)	2	(1229)	1	(1127)	1	(1316)	4408.00	(977)	0.00032	(907)
Wojciech_Jaruzelski	1	(1694)	6	(326)	1	(1127)	3	(39)	1464.14	(1394)	0.00011	(1926)
Vladimir_Putin	19	(38)	8	(193)	3	(39)	3	(39)	111784.98	(45)	0.00180	(59)
Lech_Wałęsa	6	(331)	4	(603)	2	(305)	3	(39)	38094.06	(171)	0.00025	(1134)
Lech_Kaczyński	4	(576)	9	(161)	2	(305)	3	(39)	19319.96	(332)	0.00017	(1517)
Václav_Klaus	3	(803)	4	(603)	2	(305)	2	(444)	8448.87	(657)	0.00047	(591)
Davide_Rebellin	3	(803)	1	(1804)	1	(1127)	1	(1316)	4113.00	(1021)	0.00035	(821)
Fabian_Cancellara	3	(803)	3	(835)	2	(305)	2	(444)	7854.80	(691)	0.00050	(561)
Sofia_Coppola	7	(260)	8	(193)	3	(39)	3	(39)	83299.68	(75)	0.00057	(429)
Bill_Murray	2	(1180)	0	(2670)	1	(1127)	0	(2545)	0.00	(1843)	0.00013	(1754)
Winona_Ryder	4	(576)	5	(449)	2	(305)	2	(444)	10046.15	(591)	0.00019	(1387)
Marie-Antoinette	12	(91)	10	(128)	2	(305)	3	(39)	96442.32	(54)	0.00185	(55)
Scarlett_Johansson	5	(441)	6	(326)	3	(39)	2	(444)	40359.00	(164)	0.00041	(695)
Leonardo_da_Vinci	9	(159)	18	(26)	2	(305)	2	(444)	72475.89	(90)	0.00153	(83)
Federico_García_Lorca	3	(803)	2	(1229)	2	(305)	2	(444)	1843.19	(1349)	0.00031	(938)
Luis_Buñuel	4	(576)	2	(1229)	2	(305)	2	(444)	3473.56	(1073)	0.00036	(797)
Juan_Carlos_I	8	(201)	3	(835)	2	(305)	2	(444)	33189.17	(196)	0.00079	(270)
Kirk_Hammett	2	(1180)	3	(835)	1	(1127)	2	(444)	467.13	(1561)	0.00007	(2304)
Joe_Satriani	1	(1694)	5	(449)	1	(1127)	2	(444)	204.32	(1634)	0.00007	(2310)
Dave_Mustaine	2	(1180)	2	(1229)	1	(1127)	2	(444)	1758.70	(1362)	0.00016	(1590)
Christian_Wulff	2	(1180)	1	(1804)	2	(305)	1	(1316)	0.00	(1843)	0.00030	(961)
Horst_Köhler	2	(1180)	4	(603)	2	(305)	2	(444)	6756.00	(774)	0.00046	(618)
Naguib_Mahfouz	0	(2528)	4	(603)	0	(2330)	2	(444)	0.00	(1843)	0.00005	(2543)
Muhammad	7	(260)	0	(2670)	1	(1127)	0	(2545)	0.00	(1843)	0.00021	(1289)
Jeesus	21	(28)	6	(326)	3	(39)	2	(444)	92732.36	(58)	0.00158	(76)
Anwar_Sadat	9	(159)	8	(193)	3	(39)	3	(39)	12598.19	(493)	0.00085	(237)
Mooses	7	(260)	8	(193)	2	(305)	2	(444)	74295.77	(84)	0.00120	(135)
Paris_Hilton	7	(260)	4	(603)	2	(305)	2	(444)	46323.32	(143)	0.00024	(1180)
Amy_Winehouse	2	(1180)	0	(2670)	2	(305)	0	(2545)	0.00	(1843)	0.00012	(1870)
Andy_Warhol	6	(331)	2	(1229)	2	(305)	1	(1316)	8215.74	(668)	0.00025	(1136)
Fergie	4	(576)	0	(2670)	2	(305)	0	(2545)	0.00	(1843)	0.00015	(1630)
Rita_Levi-Montalcini	0	(2528)	2	(1229)	0	(2330)	2	(444)	0.00	(1843)	0.00005	(2965)
Álvaro_Uribe	3	(803)	3	(835)	2	(305)	1	(1316)	2716.44	(1158)	0.00022	(1270)
Juan_Manuel_Santos	2	(1180)	2	(1229)	2	(305)	1	(1316)	369.57	(1583)	0.00016	(1565)
Rafael_Correa	2	(1180)	4	(603)	2	(305)	3	(39)	1739.08	(1364)	0.00011	(1925)
José_Luis_Rodríguez_Zapatero	4	(576)	3	(835)	2	(305)	2	(444)	7096.56	(736)	0.00023	(1222)
Karl_Marx	23	(22)	3	(835)	2	(305)	2	(444)	33294.81	(195)	0.00257	(31)
José_María_Aznar	3	(803)	3	(835)	2	(305)	2	(444)	2741.97	(1153)	0.00027	(1069)
Simón_Bolívar	3	(803)	4	(603)	2	(305)	2	(444)	15204.65	(425)	0.00018	(1436)
Augustin_Louis_Cauchy	1	(1694)	1	(1804)	1	(1127)	1	(1316)	790.27	(1502)	0.00007	(2362)
Ludvig_Filip_I	7	(260)	2	(1229)	1	(1127)	1	(1316)	7915.09	(685)	0.00030	(967)
Aleksandr_Vasilevski	2	(1180)	2	(1229)	2	(305)	2	(444)	0.00	(1843)	0.00030	(956)
Georgi_Žukov	6	(331)	7	(246)	2	(305)	4	(26)	7489.91	(707)	0.00074	(296)
Johnny_Cash	3	(803)	4	(603)	1	(1127)	2	(444)	9644.11	(612)	0.00026	(1122)
Nina_Simone	2	(1180)	3	(835)	1	(1127)	2	(444)	13699.25	(465)	0.00017	(1525)
Suzanne_Vega	1	(1694)	2	(1229)	1	(1127)	1	(1316)	8.29	(1783)	0.00009	(2173)
Jeff_Buckley	1	(1694)	3	(835)	1	(1127)	2	(444)	345.10	(1586)	0.00009	(2174)
André_Derain	2	(1180)	5	(449)	2	(305)	2	(444)	9613.11	(613)	0.00033	(875)
Henri_Matisse	4	(576)	4	(603)	2	(305)	2	(444)	4411.48	(973)	0.00031	(944)
Gertrude_Stein	2	(1180)	6	(326)	2	(305)	2	(444)	9940.85	(597)	0.00058	(423)
Paul_Cézanne	8	(201)	6	(326)	2	(305)	1	(1316)	13102.35	(478)	0.00070	(332)
Veselin_Topalov	2	(1180)	2	(1229)	2	(305)	2	(444)	0.00	(1843)	0.00012	(1816)
Vladimir_Kramnik	6	(331)	5	(449)	2	(305)	2	(444)	1278.30	(1420)	0.00022	(1252)
Viswanathan_Anand	3	(803)	5	(449)	2	(305)	2	(444)	857.66	(1489)	0.00017	(1499)
Sami_Hyypiä	2	(1180)	4	(603)	1	(1127)	2	(444)	5465.35	(883)	0.00010	(1969)
Rafael_Benítez	8	(201)	6	(326)	2	(305)	2	(444)	46423.51	(142)	0.00054	(449)
Jamie_Carragher	1	(1694)	2	(1229)	1	(1127)	2	(444)	705.49	(1517)	0.00007	(2295)
Steven_Gerrard	3	(803)	10	(128)	1	(1127)	2	(444)	23094.00	(282)	0.00019	(1405)
Daniel_Agger	1	(1694)	2	(1229)	1	(1127)	2	(444)	874.76	(1484)	0.00007	(2295)
Andrei_Tarkovski	2	(1180)	8	(193)	1	(1127)	2	(444)	11933.25	(520)	0.00034	(850)
Michelangelo_Antonioni	5	(441)	6	(326)	2	(305)	2	(444)	16618.38	(386)	0.00037	(782)
Stanley_Kubrick	11	(111)	13	(64)	3	(39)	3	(39)	74120.49	(85)	0.00083	(244)
Andrei_Rubljov	2	(1180)	0	(2670)	1	(1127)	0	(2545)	0.00	(1843)	0.00027	(1059)
Federico_Fellini	7	(260)	4	(603)	2	(305)	2	(444)	10189.66	(583)	0.00032	(895)
Stanisław_Lem	1	(1694)	1	(1804)	1	(1127)	1	(1316)	0.00	(1843)	0.00009	(2143)
Sergei_Eisenstein	4	(576)	2	(1229)	1	(1127)	2	(444)	3043.09	(1124)	0.00036	(793)
Sergiu_Celibidache	1	(1694)	6	(326)	1	(1127)	3	(39)	5623.29	(867)	0.00007	(2294)
Robert_Schumann	7	(260)	11	(94)	3	(39)	3	(39)	25833.28	(251)	0.00071	(324)
Anton_Bruckner	5	(441)	9	(161)	2	(305)	3	(39)	21649.67	(300)	0.00023	(1231)
Johannes_Brahms	6	(331)	9	(161)	2	(305)	3	(39)	24257.14	(268)	0.00020	(1346)
Gabriel_Fauré	2	(1180)	1	(1804)	1	(1127)	1	(1316)	2566.44	(1174)	0.00008	(2212)
Jane_Seymour_(näyttelijä)	0	(2528)	1	(1804)	0	(2330)	1	(1316)	0.00	(1843)	0.00005	(2680)
Maria_Callas	4	(576)	3	(835)	1	(1127)	2	(444)	15608.80	(414)	0.00026	(1127)
Cindy_Crawford	1	(1694)	1	(1804)	1	(1127)	1	(1316)	0.00	(1843)	0.00122	(131)
Peter_Handke	0	(2528)	1	(1804)	0	(2330)	0	(2545)	0.00	(1843)	0.00005	(2680)
Wim_Wenders	6	(331)	0	(2670)	2	(305)	0	(2545)	0.00	(1843)	0.00039	(743)
Robert_II_(Skotlanti)	1	(1694)	1	(1804)	1	(1127)	1	(1316)	0.00	(1843)	0.00024	(1208)
Robert_Bruce	4	(576)	4	(603)	2	(305)	2	(444)	6074.56	(835)	0.00082	(248)
Arthur_Conan_Doyle	4	(576)	1	(1804)	1	(1127)	1	(1316)	830.74	(1493)	0.00227	(40)
Harry_Houdini	2	(1180)	2	(1229)	1	(1127)	1	(1316)	3099.54	(1117)	0.00215	(43)
Andrew_Johnson	2	(1180)	3	(835)	2	(305)	2	(444)	32409.71	(203)	0.00106	(164)
Traian_Băsescu	2	(1180)	1	(1804)	1	(1127)	1	(1316)	2060.00	(1284)	0.00018	(1446)
Isabel_Allende	0	(2528)	1	(1804)	0	(2330)	1	(1316)	0.00	(1843)	0.00005	(2680)
Salvador_Allende	6	(331)	4	(603)	2	(305)	3	(39)	6562.18	(788)	0.00045	(640)
Blaise_Pascal	2	(1180)	2	(1229)	2	(305)	1	(1316)	6249.63	(818)	0.00016	(1580)
Michel_de_Montaigne	3	(803)	1	(1804)	1	(1127)	1	(1316)	3008.89	(1127)	0.00017	(1534)
Pierre_de_Fermat	3	(803)	1	(1804)	1	(1127)	0	(2545)	2354.00	(1205)	0.00020	(1334)
Hussein_(Jordania)	1	(1694)	2	(1229)	1	(1127)	2	(444)	367.95	(1585)	0.00007	(2335)
Rosalind_Franklin	0	(2528)	2	(1229)	0	(2330)	0	(2545)	0.00	(1843)	0.00005	(2965)
James_D._Watson	5	(441)	1	(1804)	1	(1127)	0	(2545)	7.00	(1786)	0.00020	(1354)
Francis_Crick	4	(576)	0	(2670)	1	(1127)	0	(2545)	0.00	(1843)	0.00029	(994)
Johnny_Depp	12	(91)	11	(94)	2	(305)	2	(444)	76882.41	(80)	0.00072	(316)
Ludvig_II_(Baijeri)	0	(2528)	3	(835)	0	(2330)	2	(444)	0.00	(1843)	0.00005	(2543)
Otto_von_Bismarck	6	(331)	2	(1229)	2	(305)	1	(1316)	6609.55	(785)	0.00213	(44)
Xanana_Gusmão	0	(2528)	1	(1804)	0	(2330)	0	(2545)	0.00	(1843)	0.00005	(2680)
José_Ramos_Horta	1	(1694)	0	(2670)	0	(2330)	0	(2545)	0.00	(1843)	0.00010	(2015)
Jasser_Arafat	9	(159)	7	(246)	3	(39)	3	(39)	36576.64	(176)	0.00082	(250)
Golda_Meir	5	(441)	7	(246)	3	(39)	3	(39)	15039.44	(429)	0.00034	(852)
E._T._A._Hoffmann	1	(1694)	1	(1804)	1	(1127)	1	(1316)	52.79	(1729)	0.00011	(1919)
Pjotr_Tšaikovski	3	(803)	2	(1229)	2	(305)	1	(1316)	6350.40	(808)	0.00026	(1132)
Anders_Celsius	0	(2528)	1	(1804)	0	(2330)	1	(1316)	0.00	(1843)	0.00005	(2680)
Carl_von_Linné	1	(1694)	1	(1804)	0	(2330)	1	(1316)	2059.00	(1294)	0.00010	(2015)
Philipp_Melanchthon	2	(1180)	2	(1229)	2	(305)	1	(1316)	298.09	(1603)	0.00043	(663)
Jean_Calvin	9	(159)	1	(1804)	2	(305)	1	(1316)	3363.54	(1088)	0.00171	(62)
Johannes_Rau	2	(1180)	2	(1229)	1	(1127)	1	(1316)	4408.00	(977)	0.00034	(845)
Helmut_Kohl	7	(260)	6	(326)	3	(39)	3	(39)	19299.01	(334)	0.00123	(128)
Roman_Herzog	1	(1694)	1	(1804)	1	(1127)	1	(1316)	0.00	(1843)	0.00020	(1324)
Ion_Antonescu	1	(1694)	1	(1804)	0	(2330)	1	(1316)	2058.00	(1297)	0.00007	(2270)
Robert_Bunsen	3	(803)	2	(1229)	1	(1127)	1	(1316)	19.33	(1759)	0.00014	(1701)
John_Stuart_Mill	5	(441)	2	(1229)	2	(305)	2	(444)	7226.12	(725)	0.00040	(718)
Michel_Foucault	4	(576)	5	(449)	2	(305)	2	(444)	11902.73	(525)	0.00026	(1086)
Fredrik_II_Suuri	4	(576)	6	(326)	2	(305)	2	(444)	26617.93	(246)	0.00044	(653)
Theodor_Mommsen	3	(803)	0	(2670)	2	(305)	0	(2545)	0.00	(1843)	0.00028	(1024)
Augustinus	6	(331)	14	(44)	2	(305)	3	(39)	38211.27	(170)	0.00019	(1413)
Marius	2	(1180)	2	(1229)	2	(305)	1	(1316)	94.53	(1699)	0.00026	(1087)
Voltaire	14	(70)	12	(72)	3	(39)	2	(444)	121842.68	(41)	0.00093	(207)
Ambrosius	2	(1180)	3	(835)	1	(1127)	2	(444)	22997.65	(284)	0.00023	(1237)
Maria_Fjodorovna	5	(441)	4	(603)	2	(305)	2	(444)	6649.25	(782)	0.00046	(626)
Aleksandr_Kerenski	2	(1180)	3	(835)	2	(305)	3	(39)	6796.38	(766)	0.00042	(676)
Grigori_Rasputin	5	(441)	4	(603)	2	(305)	2	(444)	61496.89	(109)	0.00047	(614)
Kserkses_I	3	(803)	1	(1804)	1	(1127)	0	(2545)	1428.51	(1402)	0.00022	(1275)
Herodotos	2	(1180)	0	(2670)	1	(1127)	0	(2545)	0.00	(1843)	0.00029	(993)
Eleanor_Roosevelt	4	(576)	5	(449)	2	(305)	3	(39)	19062.82	(339)	0.00164	(68)
Harry_S._Truman	9	(159)	3	(835)	2	(305)	3	(39)	18602.99	(346)	0.00284	(22)
Roman_Polański	8	(201)	1	(1804)	2	(305)	1	(1316)	315.85	(1596)	0.00369	(9)
Charles_Manson	5	(441)	1	(1804)	2	(305)	1	(1316)	843.98	(1492)	0.00363	(10)
Aleksandr_Alehin	2	(1180)	7	(246)	2	(305)	3	(39)	26.86	(1752)	0.00010	(1995)
Anatoli_Karpov	5	(441)	2	(1229)	2	(305)	2	(444)	129.89	(1674)	0.00021	(1298)
Garri_Kasparov	5	(441)	9	(161)	2	(305)	3	(39)	7737.21	(696)	0.00026	(1108)
Emanuel_Lasker	3	(803)	6	(326)	2	(305)	3	(39)	3801.56	(1045)	0.00012	(1836)
Bobby_Fischer	4	(576)	4	(603)	2	(305)	3	(39)	1594.28	(1382)	0.00021	(1283)
José_Raúl_Capablanca	5	(441)	6	(326)	2	(305)	3	(39)	1516.71	(1388)	0.00020	(1365)
Agnetha_Fältskog	1	(1694)	1	(1804)	1	(1127)	1	(1316)	0.00	(1843)	0.00052	(485)
Björn_Ulvaeus	1	(1694)	1	(1804)	1	(1127)	1	(1316)	0.00	(1843)	0.00052	(485)
Septimius_Severus	2	(1180)	5	(449)	1	(1127)	2	(444)	6755.43	(775)	0.00033	(866)
Pertinax	1	(1694)	0	(2670)	1	(1127)	0	(2545)	0.00	(1843)	0.00011	(1901)
Marcus_Aurelius	4	(576)	3	(835)	2	(305)	2	(444)	9533.38	(615)	0.00020	(1349)
Caracalla	5	(441)	1	(1804)	1	(1127)	1	(1316)	4994.43	(918)	0.00029	(1006)
Severus_Alexander	4	(576)	5	(449)	1	(1127)	2	(444)	18551.78	(349)	0.00044	(646)
Elagabalus	3	(803)	1	(1804)	1	(1127)	1	(1316)	12741.13	(490)	0.00025	(1153)
Brad_Renfro	0	(2528)	2	(1229)	0	(2330)	1	(1316)	0.00	(1843)	0.00005	(2965)
Susan_Sarandon	3	(803)	1	(1804)	1	(1127)	1	(1316)	2097.29	(1267)	0.00021	(1290)
Tommy_Lee_Jones	2	(1180)	0	(2670)	1	(1127)	0	(2545)	0.00	(1843)	0.00009	(2111)
Daniel_arap_Moi	1	(1694)	1	(1804)	1	(1127)	1	(1316)	0.00	(1843)	0.00052	(485)
Mwai_Kibaki	1	(1694)	1	(1804)	1	(1127)	1	(1316)	0.00	(1843)	0.00052	(485)
Pietari_(apostoli)	0	(2528)	8	(193)	0	(2330)	2	(444)	0.00	(1843)	0.00005	(2961)
Origenes	3	(803)	5	(449)	0	(2330)	2	(444)	924.32	(1476)	0.00007	(2329)
Johannes_Kastaja	11	(111)	2	(1229)	2	(305)	2	(444)	15440.49	(418)	0.00127	(120)
Caravaggio	3	(803)	0	(2670)	1	(1127)	0	(2545)	0.00	(1843)	0.00011	(1914)
Radovan_Karadžić	0	(2528)	1	(1804)	0	(2330)	1	(1316)	0.00	(1843)	0.00005	(2680)
Brian_Jones	2	(1180)	5	(449)	2	(305)	3	(39)	8609.02	(650)	0.00020	(1351)
Mick_Jagger	7	(260)	8	(193)	2	(305)	3	(39)	51056.20	(127)	0.00055	(439)
A._A._Milne	1	(1694)	1	(1804)	1	(1127)	0	(2545)	115.03	(1684)	0.00009	(2162)
Bill_Wyman	2	(1180)	0	(2670)	2	(305)	0	(2545)	0.00	(1843)	0.00015	(1626)
Catherine_Ashton	2	(1180)	1	(1804)	2	(305)	1	(1316)	156.87	(1652)	0.00070	(330)
Chinua_Achebe	1	(1694)	1	(1804)	0	(2330)	1	(1316)	295.18	(1605)	0.00006	(2463)
Innocentius_XIII	3	(803)	2	(1229)	2	(305)	2	(444)	5399.83	(887)	0.00117	(138)
Benedictus_XIII	2	(1180)	2	(1229)	2	(305)	2	(444)	72.86	(1716)	0.00088	(224)
Arthur_Kornberg	1	(1694)	1	(1804)	1	(1127)	1	(1316)	0.00	(1843)	0.00052	(485)
Roger_Kornberg	1	(1694)	1	(1804)	1	(1127)	1	(1316)	0.00	(1843)	0.00052	(485)
Gerhard_Schröder	6	(331)	2	(1229)	3	(39)	2	(444)	2762.66	(1148)	0.00069	(334)
Angela_Merkel	8	(201)	5	(449)	3	(39)	2	(444)	23565.62	(275)	0.00079	(271)
Karl_Alexander_Müller	0	(2528)	1	(1804)	0	(2330)	1	(1316)	0.00	(1843)	0.00005	(2680)
Wolfgang_Pauli	4	(576)	1	(1804)	1	(1127)	1	(1316)	4120.67	(1008)	0.00017	(1488)
Pablo_de_Sarasate	0	(2528)	3	(835)	0	(2330)	1	(1316)	0.00	(1843)	0.00005	(2543)
Georges_Bizet	1	(1694)	0	(2670)	0	(2330)	0	(2545)	0.00	(1843)	0.00007	(2377)
Antonio_Stradivari	1	(1694)	0	(2670)	0	(2330)	0	(2545)	0.00	(1843)	0.00007	(2377)
Camille_Saint-Saëns	4	(576)	1	(1804)	1	(1127)	1	(1316)	5296.21	(896)	0.00018	(1465)
Peter_O'Toole	2	(1180)	2	(1229)	1	(1127)	1	(1316)	2325.31	(1235)	0.00020	(1357)
T._E._Lawrence	1	(1694)	1	(1804)	1	(1127)	1	(1316)	0.00	(1843)	0.00014	(1685)
Charlotte_Brontë	0	(2528)	1	(1804)	0	(2330)	1	(1316)	0.00	(1843)	0.00005	(2680)
Anne_Brontë	2	(1180)	1	(1804)	1	(1127)	1	(1316)	2133.41	(1263)	0.00011	(1930)
J._M._Barrie	0	(2528)	1	(1804)	0	(2330)	1	(1316)	0.00	(1843)	0.00005	(2680)
Pepe_Reina	4	(576)	1	(1804)	2	(305)	1	(1316)	48.94	(1733)	0.00043	(671)
Jerzy_Dudek	3	(803)	2	(1229)	2	(305)	1	(1316)	101.95	(1696)	0.00053	(465)
Thomas_Mann	10	(134)	3	(835)	2	(305)	2	(444)	40549.84	(161)	0.00034	(831)
Paulo_Coelho	0	(2528)	5	(449)	0	(2330)	2	(444)	0.00	(1843)	0.00005	(2660)
Will_Smith	5	(441)	2	(1229)	2	(305)	1	(1316)	7903.54	(688)	0.00021	(1322)
Russell_Crowe	6	(331)	2	(1229)	1	(1127)	1	(1316)	16173.44	(401)	0.00031	(924)
Henry_Miller	2	(1180)	0	(2670)	0	(2330)	0	(2545)	0.00	(1843)	0.00006	(2444)
Jay-Z	8	(201)	4	(603)	3	(39)	3	(39)	4002.09	(1032)	0.00041	(696)
Rihanna	12	(91)	9	(161)	3	(39)	3	(39)	23741.19	(272)	0.00048	(586)
Kanye_West	7	(260)	5	(449)	3	(39)	3	(39)	11473.21	(538)	0.00034	(833)
Sun_Yat-sen	3	(803)	2	(1229)	2	(305)	1	(1316)	2777.64	(1146)	0.00093	(210)
Yuan_Shikai	2	(1180)	2	(1229)	2	(305)	1	(1316)	2361.07	(1201)	0.00066	(362)
Tšiang_Kai-šek	6	(331)	4	(603)	3	(39)	3	(39)	7752.00	(694)	0.00128	(117)
Leo_Esaki	1	(1694)	1	(1804)	1	(1127)	1	(1316)	0.00	(1843)	0.00052	(485)
Ivar_Giaever	1	(1694)	1	(1804)	1	(1127)	1	(1316)	0.00	(1843)	0.00052	(485)
Jennifer_Hudson	2	(1180)	2	(1229)	2	(305)	1	(1316)	567.47	(1538)	0.00011	(1880)
Virginia_Woolf	1	(1694)	1	(1804)	1	(1127)	1	(1316)	909.29	(1479)	0.00006	(2470)
Gerald_Ford	12	(91)	8	(193)	3	(39)	3	(39)	43639.85	(153)	0.00197	(51)
Nelson_A._Rockefeller	3	(803)	4	(603)	2	(305)	3	(39)	310.67	(1597)	0.00061	(398)
Marion_Cotillard	1	(1694)	6	(326)	1	(1127)	2	(444)	5836.58	(846)	0.00015	(1610)
Jean-Pierre_Jeunet	1	(1694)	1	(1804)	1	(1127)	0	(2545)	2354.00	(1205)	0.00007	(2297)
Ridley_Scott	6	(331)	2	(1229)	1	(1127)	1	(1316)	7165.64	(730)	0.00040	(723)
Luc_Besson	6	(331)	1	(1804)	2	(305)	1	(1316)	2741.38	(1154)	0.00031	(939)
Édith_Piaf	3	(803)	2	(1229)	1	(1127)	2	(444)	8622.69	(649)	0.00023	(1247)
Paco_de_Lucía	0	(2528)	2	(1229)	0	(2330)	1	(1316)	0.00	(1843)	0.00005	(2965)
Joaquín_Rodrigo	1	(1694)	2	(1229)	0	(2330)	2	(444)	2058.00	(1312)	0.00007	(2288)
Manuel_de_Falla	1	(1694)	0	(2670)	0	(2330)	0	(2545)	0.00	(1843)	0.00007	(2270)
Maksim_Gorki	3	(803)	6	(326)	2	(305)	3	(39)	19311.66	(333)	0.00030	(951)
Harold_Macmillan	4	(576)	5	(449)	3	(39)	3	(39)	4393.72	(983)	0.00024	(1175)
Alec_Douglas-Home	3	(803)	5	(449)	2	(305)	3	(39)	2566.69	(1173)	0.00026	(1119)
Anthony_Eden	4	(576)	9	(161)	3	(39)	3	(39)	7013.46	(744)	0.00039	(740)
Louis_Althusser	0	(2528)	1	(1804)	0	(2330)	1	(1316)	0.00	(1843)	0.00005	(2680)
Marco_Polo	1	(1694)	1	(1804)	1	(1127)	1	(1316)	0.00	(1843)	0.00063	(387)
Kublai-kaani	2	(1180)	2	(1229)	1	(1127)	1	(1316)	5.00	(1792)	0.00128	(119)
Zheng_Jie	3	(803)	5	(449)	3	(39)	5	(1)	81.45	(1711)	0.00010	(1959)
Nicole_Vaidišová	3	(803)	14	(44)	3	(39)	5	(1)	9.63	(1780)	0.00013	(1786)
Carlos_Sastre	1	(1694)	2	(1229)	1	(1127)	2	(444)	1.20	(1820)	0.00011	(1905)
Jan_Ullrich	2	(1180)	1	(1804)	2	(305)	1	(1316)	511.70	(1550)	0.00016	(1595)
Alberto_Contador	4	(576)	6	(326)	2	(305)	2	(444)	19297.50	(335)	0.00058	(416)
Levi_Leipheimer	2	(1180)	4	(603)	2	(305)	2	(444)	1176.53	(1438)	0.00020	(1360)
Kim_Kirchen	1	(1694)	1	(1804)	1	(1127)	1	(1316)	0.00	(1843)	0.00011	(1905)
Zico	1	(1694)	1	(1804)	1	(1127)	1	(1316)	0.00	(1843)	0.00020	(1350)
Jacques_Derrida	4	(576)	3	(835)	1	(1127)	2	(444)	3436.49	(1078)	0.00013	(1756)
Martin_Heidegger	10	(134)	22	(13)	2	(305)	3	(39)	43206.46	(156)	0.00026	(1101)
Jürgen_Habermas	6	(331)	0	(2670)	2	(305)	0	(2545)	0.00	(1843)	0.00019	(1376)
Nathan_Söderblom	0	(2528)	2	(1229)	0	(2330)	1	(1316)	0.00	(1843)	0.00005	(2965)
Alfred_Nobel	3	(803)	2	(1229)	1	(1127)	1	(1316)	6101.30	(833)	0.00021	(1292)
August_Strindberg	2	(1180)	2	(1229)	1	(1127)	1	(1316)	4225.39	(999)	0.00017	(1494)
Madeleine_Albright	2	(1180)	3	(835)	2	(305)	3	(39)	6213.22	(819)	0.00027	(1081)
Tom_Cruise	7	(260)	3	(835)	2	(305)	1	(1316)	15010.24	(432)	0.00109	(152)
Nicole_Kidman	10	(134)	1	(1804)	2	(305)	1	(1316)	1609.07	(1380)	0.00066	(368)
Dustin_Hoffman	8	(201)	0	(2670)	2	(305)	0	(2545)	0.00	(1843)	0.00073	(305)
Penélope_Cruz	4	(576)	6	(326)	2	(305)	2	(444)	21977.89	(297)	0.00062	(394)
Aleksander_Kwaśniewski	1	(1694)	1	(1804)	1	(1127)	1	(1316)	0.00	(1843)	0.00007	(2356)
Albert_Kesselring	2	(1180)	1	(1804)	1	(1127)	1	(1316)	18483.00	(351)	0.00030	(945)
Erwin_Rommel	4	(576)	6	(326)	1	(1127)	3	(39)	19364.89	(331)	0.00045	(635)
Horatio_Nelson	1	(1694)	1	(1804)	1	(1127)	1	(1316)	0.00	(1843)	0.00047	(604)
Juan_Ignacio_Chela	1	(1694)	1	(1804)	1	(1127)	1	(1316)	0.00	(1843)	0.00009	(2096)
Joachim_Murat	1	(1694)	0	(2670)	1	(1127)	0	(2545)	0.00	(1843)	0.00047	(604)
Kaarle_XIV_Juhana	3	(803)	4	(603)	2	(305)	2	(444)	20480.89	(316)	0.00101	(180)
Ludvig_XVI	6	(331)	6	(326)	2	(305)	2	(444)	32245.29	(204)	0.00079	(272)
Michel_Ney	1	(1694)	1	(1804)	1	(1127)	0	(2545)	0.00	(1843)	0.00047	(604)
Ludvig_XVIII	5	(441)	0	(2670)	2	(305)	0	(2545)	0.00	(1843)	0.00123	(125)
Joséphine_de_Beauharnais	2	(1180)	3	(835)	2	(305)	2	(444)	20544.24	(315)	0.00120	(134)
Marie_Louise	2	(1180)	2	(1229)	2	(305)	2	(444)	5390.19	(890)	0.00083	(243)
Arthur_Miller	4	(576)	3	(835)	2	(305)	2	(444)	11016.92	(552)	0.00026	(1128)
Isabelle_Adjani	1	(1694)	2	(1229)	1	(1127)	1	(1316)	155.68	(1653)	0.00010	(1985)
Aliens_–_paluu	2	(1180)	3	(835)	1	(1127)	1	(1316)	6618.56	(784)	0.00046	(629)
James_Cameron	4	(576)	1	(1804)	1	(1127)	1	(1316)	4857.56	(930)	0.00026	(1107)
Sigourney_Weaver	1	(1694)	1	(1804)	1	(1127)	1	(1316)	0.00	(1843)	0.00019	(1407)
George_Eastman	0	(2528)	1	(1804)	0	(2330)	1	(1316)	0.00	(1843)	0.00005	(2680)
Thomas_Edison	9	(159)	4	(603)	2	(305)	2	(444)	44787.50	(149)	0.00054	(455)
Simon_Wiesenthal	0	(2528)	2	(1229)	0	(2330)	1	(1316)	0.00	(1843)	0.00005	(2965)
Adolf_Eichmann	5	(441)	1	(1804)	2	(305)	1	(1316)	2111.91	(1264)	0.00049	(576)
Anne_Frank	1	(1694)	0	(2670)	0	(2330)	0	(2545)	0.00	(1843)	0.00007	(2270)
Edvard_IV	6	(331)	2	(1229)	2	(305)	2	(444)	221.69	(1627)	0.00030	(962)
Rikhard_III	6	(331)	3	(835)	2	(305)	2	(444)	5359.64	(893)	0.00034	(843)
Edvard_V	3	(803)	3	(835)	2	(305)	2	(444)	769.58	(1505)	0.00030	(947)
Anna_Kurnikova	0	(2528)	1	(1804)	0	(2330)	0	(2545)	0.00	(1843)	0.00005	(2680)
Marisa_Tomei	0	(2528)	1	(1804)	0	(2330)	1	(1316)	0.00	(1843)	0.00005	(2680)
Konstantin_Tšernenko	2	(1180)	3	(835)	2	(305)	3	(39)	372.86	(1582)	0.00036	(792)
Juri_Andropov	5	(441)	5	(449)	2	(305)	3	(39)	18155.89	(355)	0.00049	(570)
Annette_Bening	2	(1180)	1	(1804)	1	(1127)	1	(1316)	89.21	(1705)	0.00054	(458)
Shirley_MacLaine	6	(331)	2	(1229)	2	(305)	1	(1316)	7865.28	(689)	0.00070	(325)
John_Locke	8	(201)	11	(94)	3	(39)	3	(39)	11171.55	(545)	0.00032	(901)
George_Berkeley	5	(441)	6	(326)	3	(39)	3	(39)	8963.16	(634)	0.00023	(1223)
John_Dryden	1	(1694)	0	(2670)	1	(1127)	0	(2545)	0.00	(1843)	0.00008	(2240)
René_Descartes	11	(111)	8	(193)	3	(39)	3	(39)	16507.92	(389)	0.00037	(773)
Hugo_Grotius	2	(1180)	2	(1229)	1	(1127)	1	(1316)	2102.16	(1266)	0.00014	(1713)
Edward_Gibbon	3	(803)	2	(1229)	1	(1127)	2	(444)	1391.49	(1407)	0.00019	(1415)
Thomas_Carlyle	2	(1180)	2	(1229)	1	(1127)	1	(1316)	1686.21	(1372)	0.00018	(1435)
Krzysztof_Kieślowski	1	(1694)	1	(1804)	0	(2330)	1	(1316)	2.00	(1814)	0.00006	(2430)
Henri_Poincaré	2	(1180)	2	(1229)	1	(1127)	1	(1316)	13776.89	(461)	0.00020	(1368)
Grigori_Perelman	1	(1694)	0	(2670)	1	(1127)	0	(2545)	0.00	(1843)	0.00014	(1690)
Raymond_Poincaré	2	(1180)	3	(835)	1	(1127)	2	(444)	11214.67	(543)	0.00018	(1463)
Harvey_Milk	1	(1694)	5	(449)	1	(1127)	3	(39)	1586.23	(1383)	0.00011	(1934)
Robin_Wright_Penn	1	(1694)	1	(1804)	1	(1127)	1	(1316)	0.00	(1843)	0.00011	(1934)
Taylor_Swift	3	(803)	5	(449)	2	(305)	3	(39)	10165.86	(585)	0.00013	(1723)
Miley_Cyrus	7	(260)	18	(26)	2	(305)	3	(39)	46874.71	(140)	0.00053	(472)
Taylor_Lautner	3	(803)	4	(603)	1	(1127)	2	(444)	7729.37	(698)	0.00010	(2058)
Maria_II_(Portugali)	0	(2528)	1	(1804)	0	(2330)	1	(1316)	0.00	(1843)	0.00005	(2680)
Clark_Gable	7	(260)	4	(603)	2	(305)	3	(39)	9350.78	(622)	0.00038	(761)
Grace_Kelly	6	(331)	10	(128)	2	(305)	3	(39)	20704.47	(310)	0.00051	(547)
Vivien_Leigh	6	(331)	12	(72)	2	(305)	3	(39)	24364.44	(267)	0.00100	(187)
Philip_Anderson	1	(1694)	1	(1804)	1	(1127)	1	(1316)	0.00	(1843)	0.00052	(485)
Nevill_Francis_Mott	1	(1694)	1	(1804)	1	(1127)	1	(1316)	0.00	(1843)	0.00052	(485)
Robin_Söderling	7	(260)	8	(193)	4	(17)	5	(1)	889.93	(1481)	0.00025	(1138)
Michael_Stich	3	(803)	3	(835)	3	(39)	2	(444)	2758.66	(1150)	0.00050	(555)
Samuel_Taylor_Coleridge	3	(803)	1	(1804)	2	(305)	1	(1316)	2206.71	(1245)	0.00034	(854)
William_Wordsworth	4	(576)	2	(1229)	2	(305)	2	(444)	19727.27	(323)	0.00052	(482)
Katariina_I_(Venäjä)	1	(1694)	1	(1804)	0	(2330)	1	(1316)	0.50	(1839)	0.00006	(2430)
Pietari_Suuri	8	(201)	2	(1229)	2	(305)	1	(1316)	4707.00	(942)	0.00268	(28)
Vespasianus	3	(803)	1	(1804)	2	(305)	1	(1316)	107.75	(1690)	0.00020	(1343)
Antoninus_Pius	2	(1180)	6	(326)	2	(305)	2	(444)	1939.85	(1338)	0.00042	(683)
Austen_Chamberlain	2	(1180)	3	(835)	1	(1127)	2	(444)	4592.75	(950)	0.00037	(772)
Charles_Dawes	2	(1180)	2	(1229)	1	(1127)	2	(444)	6096.96	(834)	0.00063	(389)
Ferdinand_Porsche	0	(2528)	1	(1804)	0	(2330)	1	(1316)	0.00	(1843)	0.00005	(2680)
Sandro_Botticelli	4	(576)	5	(449)	2	(305)	2	(444)	4992.65	(919)	0.00035	(824)
Andrea_del_Verrocchio	3	(803)	3	(835)	2	(305)	2	(444)	12240.54	(509)	0.00043	(668)
Masaccio	2	(1180)	3	(835)	2	(305)	2	(444)	1028.16	(1466)	0.00019	(1399)
Wilfred_Bouma	0	(2528)	1	(1804)	0	(2330)	1	(1316)	0.00	(1843)	0.00005	(2680)
Guus_Hiddink	6	(331)	3	(835)	2	(305)	1	(1316)	14922.52	(436)	0.00141	(97)
Tommy_Robredo	6	(331)	4	(603)	4	(17)	4	(26)	567.62	(1537)	0.00023	(1234)
Joe_Biden	2	(1180)	3	(835)	2	(305)	2	(444)	1097.00	(1452)	0.00024	(1193)
Dick_Cheney	6	(331)	7	(246)	3	(39)	3	(39)	6876.96	(757)	0.00113	(145)
Pedro_Álvares_Cabral	1	(1694)	2	(1229)	1	(1127)	1	(1316)	0.00	(1843)	0.00010	(1988)
Vasco_da_Gama	2	(1180)	3	(835)	1	(1127)	1	(1316)	7.00	(1786)	0.00016	(1559)
Bartolomeu_Dias	3	(803)	0	(2670)	1	(1127)	0	(2545)	0.00	(1843)	0.00021	(1300)
David_Livingstone	1	(1694)	2	(1229)	1	(1127)	1	(1316)	3.00	(1806)	0.00020	(1358)
Henry_Morton_Stanley	2	(1180)	1	(1804)	1	(1127)	1	(1316)	4.00	(1800)	0.00016	(1554)
Richard_Francis_Burton	2	(1180)	0	(2670)	1	(1127)	0	(2545)	0.00	(1843)	0.00026	(1103)
Frans_I_(Ranska)	0	(2528)	1	(1804)	0	(2330)	1	(1316)	0.00	(1843)	0.00005	(2680)
Galileo_Galilei	10	(134)	14	(44)	3	(39)	3	(39)	110180.71	(48)	0.00061	(399)
Nelson_Mandela	15	(62)	10	(128)	3	(39)	2	(444)	86960.63	(67)	0.00142	(96)
Benedictus_XVI	6	(331)	11	(94)	2	(305)	3	(39)	61716.52	(108)	0.00026	(1125)
Hans_Frank	1	(1694)	2	(1229)	1	(1127)	2	(444)	1976.28	(1334)	0.00012	(1862)
Igor_Stravinsky	8	(201)	2	(1229)	2	(305)	1	(1316)	6176.09	(823)	0.00023	(1233)
Anthony_Burgess	2	(1180)	1	(1804)	2	(305)	1	(1316)	5715.88	(858)	0.00013	(1758)
Arnold_Schönberg	9	(159)	4	(603)	2	(305)	2	(444)	9842.45	(602)	0.00051	(546)
Henrik_Ibsen	7	(260)	0	(2670)	2	(305)	0	(2545)	0.00	(1843)	0.00054	(448)
Elias_Canetti	1	(1694)	0	(2670)	1	(1127)	0	(2545)	0.00	(1843)	0.00007	(2319)
George_Bernard_Shaw	3	(803)	0	(2670)	2	(305)	0	(2545)	0.00	(1843)	0.00031	(930)
Louis_Armstrong	4	(576)	0	(2670)	2	(305)	0	(2545)	0.00	(1843)	0.00022	(1263)
Henri_Dunant	1	(1694)	1	(1804)	1	(1127)	1	(1316)	0.00	(1843)	0.00013	(1792)
Frédéric_Passy	1	(1694)	2	(1229)	1	(1127)	1	(1316)	2058.00	(1297)	0.00016	(1544)
Girija_Prasad_Koirala	1	(1694)	1	(1804)	1	(1127)	1	(1316)	0.00	(1843)	0.00052	(485)
Gyanendra	1	(1694)	1	(1804)	1	(1127)	1	(1316)	0.00	(1843)	0.00052	(485)
Wilhelm_Pieck	2	(1180)	3	(835)	2	(305)	2	(444)	3884.90	(1041)	0.00030	(971)
Walter_Ulbricht	4	(576)	4	(603)	2	(305)	3	(39)	4494.75	(961)	0.00040	(713)
Konstantin_Rokossovski	1	(1694)	1	(1804)	1	(1127)	1	(1316)	0.00	(1843)	0.00021	(1321)
Mihail_Tuhatševski	4	(576)	5	(449)	3	(39)	3	(39)	3264.94	(1098)	0.00034	(834)
Aleksanteri_Nevski	1	(1694)	4	(603)	1	(1127)	2	(444)	1811.35	(1351)	0.00021	(1319)
Lev_Kamenev	2	(1180)	4	(603)	2	(305)	3	(39)	39.95	(1740)	0.00027	(1061)
Sergei_Kirov	3	(803)	4	(603)	2	(305)	3	(39)	413.77	(1571)	0.00039	(733)
Ashley_Cole	2	(1180)	3	(835)	1	(1127)	1	(1316)	18834.93	(343)	0.00030	(969)
José_Mourinho	9	(159)	5	(449)	2	(305)	2	(444)	47546.55	(137)	0.00081	(256)
Cheryl_Cole	2	(1180)	1	(1804)	1	(1127)	1	(1316)	17010.54	(375)	0.00015	(1608)
William_Gallas	3	(803)	2	(1229)	1	(1127)	1	(1316)	7010.20	(745)	0.00024	(1211)
Kungfutse	2	(1180)	0	(2670)	1	(1127)	0	(2545)	0.00	(1843)	0.00026	(1116)
Juliana_(Alankomaat)	0	(2528)	1	(1804)	0	(2330)	1	(1316)	0.00	(1843)	0.00005	(2680)
Beatrix	3	(803)	2	(1229)	1	(1127)	1	(1316)	4708.00	(941)	0.00028	(1031)
Johan_Amos_Comenius	0	(2528)	3	(835)	0	(2330)	2	(444)	0.00	(1843)	0.00005	(2543)
Tyko_Brahe	4	(576)	4	(603)	2	(305)	2	(444)	5515.06	(875)	0.00017	(1509)
Gottfried_Leibniz	10	(134)	25	(8)	3	(39)	3	(39)	72782.68	(88)	0.00045	(638)
Anastasio_Somoza_Debayle	1	(1694)	4	(603)	1	(1127)	3	(39)	1067.31	(1462)	0.00007	(2351)
Alfredo_Stroessner	3	(803)	5	(449)	1	(1127)	3	(39)	3974.14	(1033)	0.00019	(1424)
Raúl_Castro	4	(576)	3	(835)	2	(305)	2	(444)	9415.12	(619)	0.00040	(714)
Arthur_Leonard_Schawlow	3	(803)	2	(1229)	1	(1127)	0	(2545)	18.00	(1762)	0.00019	(1428)
Charles_Hard_Townes	1	(1694)	0	(2670)	1	(1127)	0	(2545)	0.00	(1843)	0.00013	(1721)
Robert_Hofstadter	1	(1694)	1	(1804)	1	(1127)	0	(2545)	10.00	(1779)	0.00013	(1721)
Evangeline_Lilly	1	(1694)	3	(835)	1	(1127)	2	(444)	2374.59	(1200)	0.00006	(2416)
Hugh_Jackman	1	(1694)	1	(1804)	1	(1127)	1	(1316)	402.80	(1573)	0.00007	(2332)
Anne_Hathaway	1	(1694)	3	(835)	1	(1127)	2	(444)	3641.95	(1061)	0.00006	(2501)
Jake_Gyllenhaal	3	(803)	14	(44)	1	(1127)	3	(39)	17006.96	(376)	0.00014	(1707)
Jane_Austen	5	(441)	3	(835)	1	(1127)	1	(1316)	11119.96	(547)	0.00029	(989)
Gian_Lorenzo_Bernini	3	(803)	2	(1229)	2	(305)	2	(444)	2854.18	(1138)	0.00031	(926)
Urbanus_VIII	4	(576)	4	(603)	2	(305)	2	(444)	14525.68	(443)	0.00057	(433)
Natalie_Portman	2	(1180)	5	(449)	2	(305)	2	(444)	13151.15	(477)	0.00008	(2215)
Clive_Owen	1	(1694)	2	(1229)	1	(1127)	1	(1316)	3069.26	(1123)	0.00007	(2403)
Jude_Law	2	(1180)	3	(835)	2	(305)	1	(1316)	9096.32	(628)	0.00012	(1807)
Otto_III	2	(1180)	4	(603)	1	(1127)	1	(1316)	8235.00	(667)	0.00026	(1096)
Otto_II	3	(803)	2	(1229)	1	(1127)	1	(1316)	4124.00	(1005)	0.00036	(808)
Henrik_II_Pyhä	1	(1694)	2	(1229)	1	(1127)	1	(1316)	0.00	(1843)	0.00011	(1909)
Yoon-jin_Kim	0	(2528)	1	(1804)	0	(2330)	1	(1316)	0.00	(1843)	0.00005	(2680)
Muammar_Gaddafi	4	(576)	7	(246)	2	(305)	3	(39)	28746.01	(229)	0.00028	(1044)
Nicolas_Sarkozy	14	(70)	16	(34)	3	(39)	3	(39)	84465.68	(69)	0.00092	(213)
Silvio_Berlusconi	6	(331)	11	(94)	2	(305)	3	(39)	163329.26	(24)	0.00043	(660)
Tony_Blair	10	(134)	7	(246)	3	(39)	3	(39)	36485.94	(177)	0.00108	(157)
Yaya_Touré	1	(1694)	1	(1804)	1	(1127)	1	(1316)	0.00	(1843)	0.00063	(384)
Kolo_Touré	2	(1180)	1	(1804)	1	(1127)	1	(1316)	1.00	(1822)	0.00064	(375)
Michel_Rocard	2	(1180)	3	(835)	2	(305)	2	(444)	2799.92	(1143)	0.00040	(717)
Dominique_Strauss-Kahn	4	(576)	2	(1229)	2	(305)	2	(444)	2502.10	(1183)	0.00040	(715)
Lionel_Jospin	9	(159)	3	(835)	3	(39)	2	(444)	1954.70	(1336)	0.00094	(204)
Walter_Cronkite	0	(2528)	5	(449)	0	(2330)	3	(39)	0.00	(1843)	0.00005	(2660)
Yrjö_IV_(Yhdistynyt_kuningaskunta)	2	(1180)	1	(1804)	1	(1127)	0	(2545)	121.58	(1677)	0.00010	(1949)
Klemens_XII	3	(803)	3	(835)	2	(305)	2	(444)	17184.19	(373)	0.00099	(188)
Benedictus_XIV	5	(441)	2	(1229)	3	(39)	1	(1316)	13815.99	(460)	0.00117	(139)
Henrik_I_(Englanti)	0	(2528)	2	(1229)	0	(2330)	1	(1316)	0.00	(1843)	0.00005	(2965)
Vilhelm_Valloittaja	5	(441)	1	(1804)	2	(305)	1	(1316)	14124.00	(451)	0.00053	(470)
Matilde	3	(803)	0	(2670)	1	(1127)	0	(2545)	0.00	(1843)	0.00010	(1972)
Gordon_Brown	8	(201)	4	(603)	3	(39)	2	(444)	12753.87	(489)	0.00087	(229)
Jean-Claude_Juncker	1	(1694)	0	(2670)	1	(1127)	0	(2545)	0.00	(1843)	0.00019	(1402)
Hector_Berlioz	3	(803)	11	(94)	2	(305)	3	(39)	23931.11	(271)	0.00036	(789)
Théophile_Gautier	2	(1180)	3	(835)	2	(305)	1	(1316)	1886.04	(1346)	0.00016	(1551)
Luigi_Cherubini	1	(1694)	1	(1804)	1	(1127)	1	(1316)	0.00	(1843)	0.00008	(2207)
Niccolò_Paganini	3	(803)	1	(1804)	2	(305)	1	(1316)	6317.34	(812)	0.00018	(1451)
Carl_Maria_von_Weber	6	(331)	5	(449)	2	(305)	2	(444)	5840.46	(845)	0.00032	(892)
Demi_Lovato	2	(1180)	1	(1804)	2	(305)	1	(1316)	0.00	(1843)	0.00015	(1637)
Selena_Gomez	3	(803)	3	(835)	2	(305)	2	(444)	2337.48	(1232)	0.00023	(1220)
Emily_Brontë	1	(1694)	5	(449)	1	(1127)	2	(444)	6517.24	(790)	0.00006	(2480)
Katie_Melua	1	(1694)	0	(2670)	1	(1127)	0	(2545)	0.00	(1843)	0.00006	(2479)
David_Gilmour	4	(576)	1	(1804)	1	(1127)	1	(1316)	2353.00	(1221)	0.00095	(201)
Peter_Gabriel	3	(803)	3	(835)	2	(305)	2	(444)	6904.23	(754)	0.00018	(1455)
Elton_John	11	(111)	4	(603)	3	(39)	3	(39)	38608.50	(168)	0.00067	(356)
Jeff_Beck	3	(803)	5	(449)	2	(305)	2	(444)	61185.58	(110)	0.00015	(1634)
Jean_Sibelius	1	(1694)	6	(326)	1	(1127)	3	(39)	6562.08	(789)	0.00006	(2478)
Alanis_Morissette	2	(1180)	0	(2670)	1	(1127)	0	(2545)	0.00	(1843)	0.00013	(1789)
Terry_Gilliam	5	(441)	0	(2670)	2	(305)	0	(2545)	0.00	(1843)	0.00023	(1217)
Boris_Becker	3	(803)	2	(1229)	3	(39)	2	(444)	12.23	(1770)	0.00056	(437)
Justus_von_Liebig	2	(1180)	0	(2670)	1	(1127)	0	(2545)	0.00	(1843)	0.00069	(338)
Fredrik_III_(keisari)	0	(2528)	1	(1804)	0	(2330)	1	(1316)	0.00	(1843)	0.00005	(2680)
Albrekt_II	2	(1180)	1	(1804)	1	(1127)	1	(1316)	1.00	(1822)	0.00077	(283)
Denis_Diderot	1	(1694)	3	(835)	0	(2330)	2	(444)	1210.64	(1434)	0.00007	(2368)
Charles_Baudelaire	9	(159)	5	(449)	2	(305)	2	(444)	21804.31	(299)	0.00046	(624)
Magdalan_Maria	5	(441)	2	(1229)	2	(305)	1	(1316)	56344.39	(115)	0.00041	(706)
Daniel_Radcliffe	2	(1180)	6	(326)	1	(1127)	1	(1316)	5986.64	(838)	0.00008	(2257)
J._K._Rowling	3	(803)	3	(835)	1	(1127)	1	(1316)	3679.80	(1054)	0.00013	(1787)
Rupert_Grint	2	(1180)	0	(2670)	1	(1127)	0	(2545)	0.00	(1843)	0.00007	(2299)
Emma_Watson	1	(1694)	5	(449)	1	(1127)	1	(1316)	192.23	(1640)	0.00006	(2445)
Charles_Dickens	12	(91)	0	(2670)	2	(305)	0	(2545)	0.00	(1843)	0.00047	(598)
Alain_Delon	1	(1694)	2	(1229)	0	(2330)	1	(1316)	400.38	(1575)	0.00006	(2482)
Charles_Bronson	2	(1180)	1	(1804)	0	(2330)	1	(1316)	1736.82	(1365)	0.00009	(2132)
Frans_Hals	1	(1694)	1	(1804)	1	(1127)	1	(1316)	271.19	(1610)	0.00009	(2100)
Rembrandt	6	(331)	1	(1804)	2	(305)	1	(1316)	2686.99	(1161)	0.00037	(763)
Birgit_Nilsson	0	(2528)	1	(1804)	0	(2330)	1	(1316)	0.00	(1843)	0.00005	(2680)
Pol_Pot	0	(2528)	1	(1804)	0	(2330)	1	(1316)	0.00	(1843)	0.00005	(2680)
Pieter_Zeeman	2	(1180)	2	(1229)	1	(1127)	2	(444)	7045.33	(740)	0.00013	(1751)
Hendrik_Lorentz	3	(803)	4	(603)	1	(1127)	2	(444)	15539.83	(417)	0.00023	(1230)
Heike_Kamerlingh_Onnes	2	(1180)	6	(326)	1	(1127)	2	(444)	6755.33	(776)	0.00018	(1441)
Carlos_Moyà	2	(1180)	1	(1804)	2	(305)	1	(1316)	0.33	(1840)	0.00017	(1538)
Nicolaas_Bloembergen	2	(1180)	2	(1229)	1	(1127)	1	(1316)	0.00	(1843)	0.00013	(1777)
Kai_Siegbahn	2	(1180)	3	(835)	1	(1127)	1	(1316)	1.00	(1822)	0.00014	(1680)
Alan_Turing	0	(2528)	7	(246)	0	(2330)	2	(444)	0.00	(1843)	0.00005	(3087)
Fibonacci	1	(1694)	0	(2670)	0	(2330)	0	(2545)	0.00	(1843)	0.00006	(2504)
Kurt_Gödel	3	(803)	1	(1804)	1	(1127)	1	(1316)	928.60	(1475)	0.00011	(1942)
Heinrich_von_Kleist	0	(2528)	2	(1229)	0	(2330)	2	(444)	0.00	(1843)	0.00005	(2965)
Samuel_Johnson	3	(803)	2	(1229)	2	(305)	1	(1316)	19017.45	(340)	0.00039	(736)
Leo_X	7	(260)	2	(1229)	2	(305)	2	(444)	14099.23	(452)	0.00153	(84)
Thomas_More	5	(441)	14	(44)	2	(305)	3	(39)	50762.52	(129)	0.00042	(680)
Paavali_IV	2	(1180)	1	(1804)	2	(305)	1	(1316)	0.00	(1843)	0.00017	(1510)
Pius_IV	4	(576)	4	(603)	2	(305)	2	(444)	2938.96	(1131)	0.00034	(847)
António_de_Oliveira_Salazar	3	(803)	1	(1804)	1	(1127)	1	(1316)	2.00	(1814)	0.00101	(181)
Marcelo_Caetano	1	(1694)	1	(1804)	1	(1127)	1	(1316)	0.00	(1843)	0.00097	(194)
Abu_Mus’ab_al-Zarqawi	0	(2528)	4	(603)	0	(2330)	3	(39)	0.00	(1843)	0.00005	(2543)
Nuri_al-Maliki	2	(1180)	3	(835)	1	(1127)	2	(444)	21.68	(1756)	0.00011	(1881)
Osama_bin_Laden	6	(331)	3	(835)	2	(305)	3	(39)	30500.63	(216)	0.00049	(571)
Kim_Peek	0	(2528)	2	(1229)	0	(2330)	1	(1316)	0.00	(1843)	0.00005	(2965)
Joseph_McCarthy	2	(1180)	2	(1229)	1	(1127)	2	(444)	790.43	(1501)	0.00008	(2196)
Ahmet_Necdet_Sezer	1	(1694)	1	(1804)	1	(1127)	1	(1316)	0.00	(1843)	0.00009	(2114)
Abdullah_Gül	1	(1694)	3	(835)	1	(1127)	1	(1316)	2060.00	(1284)	0.00013	(1727)
Carl_Th._Dreyer	2	(1180)	3	(835)	1	(1127)	2	(444)	2915.13	(1134)	0.00012	(1868)
Cliff_Richard	1	(1694)	3	(835)	1	(1127)	2	(444)	4462.52	(968)	0.00010	(1984)
Bob_Geldof	1	(1694)	3	(835)	1	(1127)	2	(444)	1104.50	(1451)	0.00008	(2202)
Olivia_Newton-John	2	(1180)	2	(1229)	1	(1127)	1	(1316)	8010.69	(679)	0.00011	(1929)
Anna_(Venäjä)	0	(2528)	4	(603)	0	(2330)	1	(1316)	0.00	(1843)	0.00005	(2543)
Iivana_VI	2	(1180)	1	(1804)	0	(2330)	1	(1316)	2167.58	(1255)	0.00009	(2168)
Paavali_I	4	(576)	3	(835)	1	(1127)	1	(1316)	5917.90	(840)	0.00024	(1182)
Iivana_V	3	(803)	2	(1229)	1	(1127)	1	(1316)	3.50	(1805)	0.00129	(114)
David_Guetta	3	(803)	5	(449)	2	(305)	3	(39)	1361.93	(1411)	0.00017	(1497)
Daniel_Ortega	1	(1694)	1	(1804)	0	(2330)	0	(2545)	0.00	(1843)	0.00006	(2430)
Óscar_Arias	2	(1180)	0	(2670)	0	(2330)	0	(2545)	0.00	(1843)	0.00012	(1837)
Honoré_de_Balzac	3	(803)	1	(1804)	1	(1127)	0	(2545)	1070.38	(1461)	0.00019	(1381)
Nick_Clegg	1	(1694)	0	(2670)	1	(1127)	0	(2545)	0.00	(1843)	0.00026	(1094)
Pierre_Mauroy	2	(1180)	2	(1229)	2	(305)	2	(444)	116.96	(1682)	0.00024	(1197)
Raymond_Barre	0	(2528)	3	(835)	0	(2330)	3	(39)	0.00	(1843)	0.00005	(2543)
Jacques_Chirac	17	(47)	16	(34)	3	(39)	3	(39)	54882.50	(121)	0.00145	(92)
Robert_Schuman	1	(1694)	1	(1804)	1	(1127)	1	(1316)	0.00	(1843)	0.00011	(1919)
Walter_Scott	3	(803)	3	(835)	1	(1127)	2	(444)	5257.02	(898)	0.00013	(1785)
Mihail_Bakunin	4	(576)	2	(1229)	2	(305)	2	(444)	5699.91	(862)	0.00108	(159)
George_Gordon_Byron	4	(576)	2	(1229)	2	(305)	1	(1316)	5366.28	(892)	0.00019	(1377)
John_Dalton	0	(2528)	1	(1804)	0	(2330)	0	(2545)	0.00	(1843)	0.00005	(2680)
James_Prescott_Joule	3	(803)	1	(1804)	2	(305)	0	(2545)	2351.50	(1227)	0.00023	(1243)
Jacques_Lacan	1	(1694)	3	(835)	1	(1127)	2	(444)	473.95	(1557)	0.00008	(2209)
Baruch_Spinoza	7	(260)	8	(193)	3	(39)	3	(39)	22666.88	(290)	0.00041	(703)
Ferdinand_de_Saussure	3	(803)	4	(603)	1	(1127)	2	(444)	5504.52	(877)	0.00013	(1770)
François_Bayrou	0	(2528)	4	(603)	0	(2330)	3	(39)	0.00	(1843)	0.00005	(2543)
Ségolène_Royal	4	(576)	5	(449)	2	(305)	2	(444)	13198.15	(475)	0.00037	(781)
Alain_Juppé	5	(441)	5	(449)	3	(39)	3	(39)	149.93	(1661)	0.00034	(851)
Édouard_Balladur	6	(331)	5	(449)	3	(39)	3	(39)	2222.94	(1242)	0.00048	(584)
Donovan_Bailey	0	(2528)	1	(1804)	0	(2330)	0	(2545)	0.00	(1843)	0.00005	(2680)
Michael_Johnson	2	(1180)	0	(2670)	1	(1127)	0	(2545)	0.00	(1843)	0.00016	(1591)
Kristian_IX	6	(331)	2	(1229)	2	(305)	2	(444)	4157.68	(1002)	0.00063	(382)
Rudolf_Carnap	3	(803)	1	(1804)	1	(1127)	1	(1316)	4121.50	(1007)	0.00017	(1530)
James_Baker	0	(2528)	5	(449)	0	(2330)	3	(39)	0.00	(1843)	0.00005	(2660)
Kofi_Annan	6	(331)	4	(603)	2	(305)	2	(444)	12286.54	(501)	0.00030	(975)
George_H._W._Bush	26	(15)	9	(161)	3	(39)	3	(39)	72539.55	(89)	0.00306	(17)
Kleopatra_VII	2	(1180)	6	(326)	2	(305)	2	(444)	7719.21	(700)	0.00025	(1163)
Juri_Gagarin	1	(1694)	1	(1804)	0	(2330)	1	(1316)	4546.71	(954)	0.00015	(1607)
Archibald_Vivian_Hill	0	(2528)	1	(1804)	0	(2330)	0	(2545)	0.00	(1843)	0.00005	(2680)
Bernard_Katz	1	(1694)	0	(2670)	0	(2330)	0	(2545)	0.00	(1843)	0.00010	(2015)
Claudette_Colbert	1	(1694)	1	(1804)	0	(2330)	1	(1316)	27.82	(1751)	0.00006	(2519)
Henry_Cavendish	2	(1180)	4	(603)	1	(1127)	2	(444)	12942.86	(482)	0.00018	(1448)
William_Ramsay	2	(1180)	0	(2670)	1	(1127)	0	(2545)	0.00	(1843)	0.00013	(1737)
James_Clerk_Maxwell	5	(441)	6	(326)	2	(305)	2	(444)	43320.28	(155)	0.00032	(908)
Antoine_Lavoisier	2	(1180)	2	(1229)	1	(1127)	1	(1316)	4433.42	(972)	0.00018	(1450)
Lordi_Rayleigh	3	(803)	6	(326)	2	(305)	2	(444)	6855.30	(759)	0.00028	(1048)
Raymond_Chandler	4	(576)	1	(1804)	2	(305)	1	(1316)	7307.20	(721)	0.00028	(1026)
Jane_Russell	2	(1180)	1	(1804)	2	(305)	1	(1316)	0.00	(1843)	0.00015	(1638)
Snoop_Dogg	7	(260)	5	(449)	3	(39)	3	(39)	10147.54	(586)	0.00030	(965)
Wiz_Khalifa	2	(1180)	0	(2670)	2	(305)	0	(2545)	0.00	(1843)	0.00018	(1479)
Bernhard_Clairvauxlainen	2	(1180)	1	(1804)	1	(1127)	1	(1316)	4502.32	(960)	0.00015	(1623)
James_Callaghan	3	(803)	3	(835)	3	(39)	2	(444)	2795.81	(1145)	0.00024	(1179)
Harold_Wilson	6	(331)	2	(1229)	3	(39)	2	(444)	4375.04	(985)	0.00035	(827)
Victor_Grignard	1	(1694)	1	(1804)	1	(1127)	1	(1316)	0.00	(1843)	0.00052	(485)
Paul_Sabatier	1	(1694)	1	(1804)	1	(1127)	1	(1316)	0.00	(1843)	0.00052	(485)
Stephen_Harper	1	(1694)	2	(1229)	1	(1127)	1	(1316)	7422.89	(713)	0.00012	(1853)
Michaëlle_Jean	1	(1694)	3	(835)	1	(1127)	1	(1316)	4773.89	(937)	0.00010	(1952)
Paul_Martin	2	(1180)	0	(2670)	1	(1127)	0	(2545)	0.00	(1843)	0.00014	(1715)
Jean_Renoir	3	(803)	1	(1804)	2	(305)	1	(1316)	689.82	(1522)	0.00306	(16)
Nat_King_Cole	1	(1694)	3	(835)	1	(1127)	2	(444)	10885.58	(558)	0.00011	(1888)
Ray_Charles	6	(331)	4	(603)	3	(39)	3	(39)	11902.05	(527)	0.00021	(1294)
Javier_Solana	2	(1180)	2	(1229)	2	(305)	1	(1316)	1218.46	(1433)	0.00137	(102)
Felipe_González	3	(803)	1	(1804)	2	(305)	1	(1316)	3413.59	(1080)	0.00076	(287)
James_Dean	8	(201)	3	(835)	2	(305)	2	(444)	15070.35	(427)	0.00066	(364)
Antoine_de_Saint-Exupéry	1	(1694)	0	(2670)	1	(1127)	0	(2545)	0.00	(1843)	0.00025	(1154)
Elia_Kazan	4	(576)	3	(835)	2	(305)	2	(444)	9587.57	(614)	0.00047	(593)
Bob_Dole	3	(803)	1	(1804)	2	(305)	1	(1316)	64.32	(1722)	0.00051	(550)
Johann_Gottlieb_Fichte	3	(803)	2	(1229)	1	(1127)	2	(444)	3974.02	(1034)	0.00030	(946)
Ludvig_XV	5	(441)	4	(603)	2	(305)	2	(444)	11322.95	(540)	0.00034	(859)
Maria_Teresia	9	(159)	2	(1229)	2	(305)	2	(444)	9751.93	(604)	0.00093	(209)
Stanisław_Leszczyński	2	(1180)	2	(1229)	2	(305)	1	(1316)	2532.41	(1179)	0.00028	(1042)
Alan_Parker	3	(803)	0	(2670)	1	(1127)	0	(2545)	0.00	(1843)	0.00028	(1050)
Sixtus_V	3	(803)	3	(835)	2	(305)	2	(444)	17004.13	(377)	0.00052	(541)
Gregorius_XIII	3	(803)	4	(603)	2	(305)	2	(444)	6504.38	(793)	0.00033	(878)
Chen_Ning_Yang	1	(1694)	2	(1229)	1	(1127)	2	(444)	779.05	(1504)	0.00009	(2090)
Tsung-Dao_Lee	1	(1694)	2	(1229)	1	(1127)	2	(444)	378.37	(1580)	0.00009	(2090)
Edward_Teller	2	(1180)	3	(835)	1	(1127)	2	(444)	10983.35	(554)	0.00017	(1514)
Isaac_Bashevis_Singer	0	(2528)	2	(1229)	0	(2330)	1	(1316)	0.00	(1843)	0.00005	(2965)
Saul_Bellow	2	(1180)	1	(1804)	1	(1127)	1	(1316)	1.00	(1822)	0.00064	(375)
Eddy_Merckx	3	(803)	1	(1804)	2	(305)	1	(1316)	29022.49	(224)	0.00044	(652)
Floyd_Landis	2	(1180)	2	(1229)	1	(1127)	2	(444)	3368.83	(1087)	0.00038	(756)
Šamil_Basajev	1	(1694)	3	(835)	1	(1127)	1	(1316)	4705.00	(944)	0.00025	(1137)
Džohar_Dudajev	1	(1694)	0	(2670)	1	(1127)	0	(2545)	0.00	(1843)	0.00013	(1774)
Ramzan_Kadyrov	1	(1694)	1	(1804)	1	(1127)	1	(1316)	1.00	(1822)	0.00013	(1774)
U_Thant	3	(803)	3	(835)	2	(305)	2	(444)	4282.84	(992)	0.00024	(1205)
Ban_Ki-moon	5	(441)	3	(835)	2	(305)	2	(444)	6762.12	(771)	0.00029	(1008)
Boutros_Boutros-Ghali	3	(803)	4	(603)	2	(305)	3	(39)	6843.79	(761)	0.00027	(1064)
Paul_Hausser	0	(2528)	1	(1804)	0	(2330)	1	(1316)	0.00	(1843)	0.00005	(2680)
Carmelo_Anthony	1	(1694)	3	(835)	1	(1127)	1	(1316)	3.00	(1806)	0.00006	(2475)
Kobe_Bryant	2	(1180)	1	(1804)	1	(1127)	1	(1316)	333.37	(1590)	0.00008	(2232)
Yao_Ming	1	(1694)	0	(2670)	1	(1127)	0	(2545)	0.00	(1843)	0.00007	(2342)
LeBron_James	2	(1180)	12	(72)	1	(1127)	2	(444)	5897.54	(841)	0.00011	(1884)
Carl_Spitteler	0	(2528)	1	(1804)	0	(2330)	1	(1316)	0.00	(1843)	0.00005	(2680)
Paul_Verlaine	5	(441)	2	(1229)	2	(305)	2	(444)	5589.42	(871)	0.00035	(822)
Claude_Debussy	5	(441)	3	(835)	1	(1127)	2	(444)	23441.85	(278)	0.00051	(552)
Henri_Becquerel	1	(1694)	1	(1804)	1	(1127)	1	(1316)	0.00	(1843)	0.00007	(2313)
Marie_Curie	2	(1180)	10	(128)	1	(1127)	2	(444)	6261.90	(816)	0.00024	(1173)
Makarios_III	0	(2528)	2	(1229)	0	(2330)	2	(444)	0.00	(1843)	0.00005	(2965)
Teodoro_Obiang_Nguema_Mbasogo	0	(2528)	3	(835)	0	(2330)	3	(39)	0.00	(1843)	0.00005	(2543)
Mobutu_Sese_Seko	3	(803)	5	(449)	1	(1127)	3	(39)	3662.90	(1058)	0.00012	(1857)
Ferdinand_III_(keisari)	0	(2528)	2	(1229)	0	(2330)	0	(2545)	0.00	(1843)	0.00005	(2965)
Ferdinand_II	3	(803)	0	(2670)	1	(1127)	0	(2545)	0.00	(1843)	0.00026	(1120)
Leopold_I_(keisari)	1	(1694)	0	(2670)	0	(2330)	0	(2545)	0.00	(1843)	0.00007	(2270)
Tracy_Chapman	3	(803)	1	(1804)	1	(1127)	1	(1316)	688.22	(1523)	0.00022	(1260)
Jacques-Louis_David	4	(576)	4	(603)	1	(1127)	2	(444)	6104.62	(832)	0.00024	(1192)
Belisarius	1	(1694)	3	(835)	1	(1127)	2	(444)	868.85	(1486)	0.00011	(1947)
Maximilien_Robespierre	7	(260)	5	(449)	2	(305)	2	(444)	18291.22	(353)	0.00063	(383)
Rocky_Marciano	1	(1694)	1	(1804)	1	(1127)	1	(1316)	0.00	(1843)	0.00008	(2243)
Muhammad_Ali	4	(576)	12	(72)	2	(305)	3	(39)	20949.35	(305)	0.00034	(844)
Jenson_Button	5	(441)	8	(193)	3	(39)	3	(39)	3114.79	(1114)	0.00025	(1157)
Rubens_Barrichello	6	(331)	3	(835)	3	(39)	3	(39)	545.89	(1543)	0.00032	(910)
Lewis_Hamilton	7	(260)	6	(326)	3	(39)	3	(39)	63220.26	(105)	0.00031	(937)
Ralf_Schumacher	3	(803)	9	(161)	3	(39)	3	(39)	62.55	(1723)	0.00019	(1412)
Mark_Webber	5	(441)	1	(1804)	3	(39)	1	(1316)	2057.83	(1314)	0.00047	(607)
Fernando_Alonso	7	(260)	5	(449)	3	(39)	3	(39)	11180.21	(544)	0.00029	(988)
Alain_Prost	5	(441)	6	(326)	3	(39)	3	(39)	1897.80	(1344)	0.00034	(846)
Joan_Baez	3	(803)	2	(1229)	2	(305)	2	(444)	3958.49	(1037)	0.00023	(1240)
Pete_Seeger	1	(1694)	4	(603)	1	(1127)	3	(39)	2504.79	(1182)	0.00015	(1604)
Cesare_Borgia	4	(576)	4	(603)	2	(305)	2	(444)	5088.75	(913)	0.00042	(688)
Niccolò_Machiavelli	8	(201)	0	(2670)	2	(305)	0	(2545)	0.00	(1843)	0.00045	(636)
Lucrezia_Borgia	2	(1180)	3	(835)	2	(305)	2	(444)	1277.19	(1421)	0.00027	(1084)
Sebastián_Piñera	1	(1694)	1	(1804)	1	(1127)	1	(1316)	137.72	(1665)	0.00010	(1958)
Augusto_Pinochet	7	(260)	8	(193)	2	(305)	3	(39)	67068.56	(99)	0.00067	(359)
Pierre_Trudeau	1	(1694)	1	(1804)	1	(1127)	0	(2545)	2354.00	(1205)	0.00006	(2452)
Álvaro_Arbeloa	0	(2528)	1	(1804)	0	(2330)	1	(1316)	0.00	(1843)	0.00005	(2680)
Ernest_Shackleton	0	(2528)	2	(1229)	0	(2330)	1	(1316)	0.00	(1843)	0.00005	(2965)
Robert_Falcon_Scott	2	(1180)	1	(1804)	1	(1127)	1	(1316)	84.52	(1710)	0.00011	(1932)
Nicole_Scherzinger	2	(1180)	4	(603)	2	(305)	3	(39)	67701.58	(97)	0.00014	(1688)
50_Cent	5	(441)	6	(326)	3	(39)	3	(39)	20454.13	(317)	0.00029	(1009)
Carmen_Electra	1	(1694)	0	(2670)	1	(1127)	0	(2545)	0.00	(1843)	0.00008	(2193)
”Weird_Al”_Yankovic	1	(1694)	5	(449)	1	(1127)	3	(39)	3204.08	(1105)	0.00008	(2224)
Backstreet_Boys	3	(803)	2	(1229)	1	(1127)	2	(444)	4865.40	(928)	0.00023	(1238)
Ulrich_Zwingli	3	(803)	2	(1229)	2	(305)	1	(1316)	5390.73	(889)	0.00207	(46)
Paul_Anka	4	(576)	3	(835)	2	(305)	3	(39)	16471.24	(392)	0.00020	(1375)
Buddy_Holly	1	(1694)	4	(603)	1	(1127)	3	(39)	281.86	(1606)	0.00011	(1912)
Pulp	0	(2528)	2	(1229)	0	(2330)	2	(444)	0.00	(1843)	0.00005	(2965)
Carl_Nielsen	1	(1694)	0	(2670)	1	(1127)	0	(2545)	0.00	(1843)	0.00006	(2471)
Gustav_Mahler	13	(80)	7	(246)	2	(305)	2	(444)	20619.05	(314)	0.00053	(475)
Pieter_Brueghel_vanhempi	0	(2528)	1	(1804)	0	(2330)	0	(2545)	0.00	(1843)	0.00005	(2680)
Hieronymus_Bosch	1	(1694)	0	(2670)	0	(2330)	0	(2545)	0.00	(1843)	0.00010	(2015)
Hu_Jintao	1	(1694)	1	(1804)	1	(1127)	1	(1316)	0.00	(1843)	0.00081	(257)
Iivana_Julma	5	(441)	2	(1229)	1	(1127)	2	(444)	6732.64	(777)	0.00036	(791)
Erich_von_Manstein	3	(803)	2	(1229)	1	(1127)	2	(444)	2061.23	(1279)	0.00012	(1814)
Lindsay_Lohan	6	(331)	3	(835)	2	(305)	2	(444)	9670.84	(610)	0.00020	(1332)
Janis_Joplin	3	(803)	0	(2670)	2	(305)	0	(2545)	0.00	(1843)	0.00018	(1480)
Jessica_Simpson	1	(1694)	3	(835)	1	(1127)	2	(444)	14.00	(1767)	0.00007	(2265)
Aerosmith	8	(201)	8	(193)	2	(305)	3	(39)	25222.25	(256)	0.00042	(673)
Bobby_Moore	1	(1694)	1	(1804)	1	(1127)	1	(1316)	17938.84	(358)	0.00009	(2150)
Howard_Zinn	0	(2528)	3	(835)	0	(2330)	2	(444)	0.00	(1843)	0.00005	(2543)
Camille_Pissarro	4	(576)	1	(1804)	2	(305)	1	(1316)	3522.26	(1068)	0.00027	(1052)
Douglas_Fairbanks	2	(1180)	1	(1804)	2	(305)	1	(1316)	0.00	(1843)	0.00022	(1269)
Mary_Pickford	4	(576)	3	(835)	2	(305)	1	(1316)	5054.44	(917)	0.00035	(819)
Alfred_Rosenberg	2	(1180)	1	(1804)	2	(305)	1	(1316)	0.00	(1843)	0.00034	(839)
George_Harrison	4	(576)	5	(449)	3	(39)	3	(39)	8870.17	(639)	0.00051	(548)
Paul_McCartney	8	(201)	6	(326)	3	(39)	3	(39)	35746.75	(180)	0.00073	(299)
Ringo_Starr	4	(576)	1	(1804)	2	(305)	1	(1316)	7599.79	(705)	0.00046	(627)
Neville_Chamberlain	7	(260)	3	(835)	3	(39)	3	(39)	1955.27	(1335)	0.00077	(277)
Stanley_Baldwin	4	(576)	6	(326)	3	(39)	3	(39)	2744.03	(1152)	0.00058	(417)
Kurt_Weill	1	(1694)	3	(835)	1	(1127)	2	(444)	12265.58	(507)	0.00027	(1056)
Bertolt_Brecht	8	(201)	2	(1229)	2	(305)	2	(444)	18211.88	(354)	0.00049	(568)
Rutherford_B._Hayes	3	(803)	2	(1229)	2	(305)	2	(444)	2353.42	(1220)	0.00067	(352)
James_Garfield	3	(803)	2	(1229)	2	(305)	2	(444)	2203.47	(1246)	0.00052	(538)
Guy_de_Maupassant	1	(1694)	4	(603)	1	(1127)	1	(1316)	111.18	(1688)	0.00011	(1921)
Christopher_Marlowe	2	(1180)	3	(835)	2	(305)	2	(444)	18465.42	(352)	0.00043	(665)
Edvard_II	5	(441)	5	(449)	2	(305)	2	(444)	27126.13	(244)	0.00091	(221)
Erich_Honecker	2	(1180)	3	(835)	2	(305)	3	(39)	2038.55	(1326)	0.00033	(881)
Helmut_Schmidt	6	(331)	3	(835)	2	(305)	3	(39)	10330.62	(574)	0.00071	(322)
Eukleides	0	(2528)	2	(1229)	0	(2330)	2	(444)	0.00	(1843)	0.00005	(2965)
Aleksanteri_Suuri	9	(159)	9	(161)	2	(305)	2	(444)	65854.82	(103)	0.00086	(231)
Larry_Page	1	(1694)	1	(1804)	1	(1127)	1	(1316)	0.00	(1843)	0.00052	(485)
Sergei_Brin	1	(1694)	1	(1804)	1	(1127)	1	(1316)	0.00	(1843)	0.00052	(485)
Fernando_Álvarez_de_Toledo	0	(2528)	1	(1804)	0	(2330)	0	(2545)	0.00	(1843)	0.00005	(2680)
Kaarle_V_(keisari)	3	(803)	0	(2670)	2	(305)	0	(2545)	0.00	(1843)	0.00047	(599)
Che_Guevara	7	(260)	22	(13)	2	(305)	3	(39)	87784.92	(66)	0.00052	(545)
Malcolm_X	2	(1180)	1	(1804)	2	(305)	1	(1316)	1119.20	(1448)	0.00022	(1281)
Ewald_von_Kleist	0	(2528)	1	(1804)	0	(2330)	1	(1316)	0.00	(1843)	0.00005	(2680)
Innocentius_III	3	(803)	1	(1804)	1	(1127)	1	(1316)	4492.36	(962)	0.00015	(1605)
Alexander_Dubček	1	(1694)	14	(44)	1	(1127)	3	(39)	17421.65	(370)	0.00013	(1779)
Václav_Havel	5	(441)	1	(1804)	2	(305)	1	(1316)	5773.20	(851)	0.00036	(800)
Olof_Palme	3	(803)	3	(835)	1	(1127)	3	(39)	6109.05	(831)	0.00012	(1827)
Rosa_Luxemburg	5	(441)	3	(835)	2	(305)	2	(444)	3406.55	(1081)	0.00031	(920)
Todor_Živkov	1	(1694)	4	(603)	1	(1127)	3	(39)	239.25	(1622)	0.00006	(2481)
Willy_Brandt	6	(331)	8	(193)	2	(305)	3	(39)	19195.71	(336)	0.00050	(562)
Karl_Kautsky	4	(576)	5	(449)	2	(305)	2	(444)	8088.82	(675)	0.00026	(1118)
Pius_VIII	4	(576)	3	(835)	2	(305)	2	(444)	9403.85	(620)	0.00049	(574)
Tim_Roth	2	(1180)	2	(1229)	1	(1127)	1	(1316)	2182.85	(1252)	0.00012	(1825)
Oliver_Cromwell	4	(576)	0	(2670)	1	(1127)	0	(2545)	0.00	(1843)	0.00030	(960)
Quentin_Tarantino	9	(159)	11	(94)	3	(39)	3	(39)	73397.17	(87)	0.00053	(462)
Albert_II_(Belgia)	0	(2528)	2	(1229)	0	(2330)	2	(444)	0.00	(1843)	0.00005	(2965)
Baudouin_I	2	(1180)	4	(603)	1	(1127)	2	(444)	810.00	(1495)	0.00011	(1924)
George_Marshall	0	(2528)	1	(1804)	0	(2330)	1	(1316)	0.00	(1843)	0.00005	(2680)
Edvard_Grieg	3	(803)	5	(449)	2	(305)	1	(1316)	9859.01	(601)	0.00027	(1071)
H._C._Andersen	3	(803)	3	(835)	2	(305)	1	(1316)	3360.84	(1089)	0.00018	(1485)
John_Huston	7	(260)	2	(1229)	2	(305)	2	(444)	44901.77	(148)	0.00038	(753)
Elizabeth_Taylor	10	(134)	2	(1229)	3	(39)	2	(444)	14874.42	(438)	0.00133	(106)
Joseph_L._Mankiewicz	2	(1180)	0	(2670)	2	(305)	0	(2545)	0.00	(1843)	0.00019	(1423)
Laurence_Olivier	11	(111)	1	(1804)	3	(39)	1	(1316)	9253.10	(625)	0.00075	(291)
Franco_Zeffirelli	5	(441)	5	(449)	2	(305)	2	(444)	16413.76	(395)	0.00038	(755)
Gary_Becker	1	(1694)	0	(2670)	1	(1127)	0	(2545)	0.00	(1843)	0.00009	(2172)
Isaac_Asimov	2	(1180)	1	(1804)	1	(1127)	1	(1316)	135.22	(1670)	0.00026	(1130)
William_James	5	(441)	1	(1804)	2	(305)	1	(1316)	1424.57	(1404)	0.00303	(19)
Ronald_Koeman	3	(803)	1	(1804)	2	(305)	1	(1316)	6291.41	(813)	0.00057	(426)
Arkhimedes	0	(2528)	3	(835)	0	(2330)	2	(444)	0.00	(1843)	0.00005	(2543)
Eratosthenes	2	(1180)	2	(1229)	0	(2330)	1	(1316)	143.23	(1662)	0.00008	(2261)
Octavio_Paz	0	(2528)	1	(1804)	0	(2330)	1	(1316)	0.00	(1843)	0.00005	(2680)
Joosef_II	8	(201)	4	(603)	2	(305)	2	(444)	26375.69	(248)	0.00106	(165)
Iannis_Xenakis	0	(2528)	2	(1229)	0	(2330)	2	(444)	0.00	(1843)	0.00005	(2965)
Arthur_Honegger	1	(1694)	4	(603)	0	(2330)	2	(444)	1315.27	(1417)	0.00007	(2269)
Olivier_Messiaen	3	(803)	2	(1229)	1	(1127)	2	(444)	5190.64	(907)	0.00037	(764)
Max_Born	3	(803)	4	(603)	1	(1127)	2	(444)	12094.19	(515)	0.00012	(1839)
Robert_Oppenheimer	4	(576)	1	(1804)	1	(1127)	1	(1316)	151.65	(1659)	0.00018	(1472)
Max_Planck	9	(159)	4	(603)	2	(305)	2	(444)	21935.19	(298)	0.00071	(320)
Syd_Barrett	2	(1180)	1	(1804)	1	(1127)	1	(1316)	0.00	(1843)	0.00092	(216)
Heinrich_Himmler	7	(260)	11	(94)	2	(305)	3	(39)	16734.05	(382)	0.00122	(132)
Aleksandr_Litvinenko	0	(2528)	4	(603)	0	(2330)	2	(444)	0.00	(1843)	0.00005	(2543)
Anna_Politkovskaja	1	(1694)	3	(835)	0	(2330)	2	(444)	102.24	(1694)	0.00006	(2421)
Marc-Vivien_Foé	0	(2528)	2	(1229)	0	(2330)	1	(1316)	0.00	(1843)	0.00005	(2965)
Thierry_Henry	10	(134)	5	(449)	2	(305)	2	(444)	12423.71	(500)	0.00113	(144)
Kevin_Keegan	4	(576)	1	(1804)	1	(1127)	1	(1316)	5489.92	(881)	0.00022	(1255)
Deryck_Whibley	1	(1694)	2	(1229)	1	(1127)	1	(1316)	268.89	(1611)	0.00007	(2337)
Avril_Lavigne	1	(1694)	4	(603)	1	(1127)	1	(1316)	245.61	(1617)	0.00008	(2191)
Brian_Mulroney	2	(1180)	0	(2670)	1	(1127)	0	(2545)	0.00	(1843)	0.00047	(594)
Ruslana	0	(2528)	2	(1229)	0	(2330)	2	(444)	0.00	(1843)	0.00005	(2965)
Emil_Boc	0	(2528)	1	(1804)	0	(2330)	1	(1316)	0.00	(1843)	0.00005	(2680)
Franz_Beckenbauer	3	(803)	5	(449)	2	(305)	2	(444)	14952.92	(435)	0.00067	(357)
Bobby_Charlton	6	(331)	1	(1804)	2	(305)	1	(1316)	9505.40	(617)	0.00040	(712)
Giacinto_Facchetti	2	(1180)	0	(2670)	1	(1127)	0	(2545)	0.00	(1843)	0.00022	(1271)
Allvar_Gullstrand	0	(2528)	1	(1804)	0	(2330)	1	(1316)	0.00	(1843)	0.00005	(2680)
Robin_van_Persie	3	(803)	3	(835)	1	(1127)	2	(444)	4181.39	(1000)	0.00021	(1309)
Arsène_Wenger	9	(159)	6	(326)	2	(305)	2	(444)	35018.99	(183)	0.00061	(401)
Cesc_Fàbregas	5	(441)	3	(835)	1	(1127)	2	(444)	3286.91	(1097)	0.00028	(1038)
John_Williams_(säveltäjä)	0	(2528)	3	(835)	0	(2330)	2	(444)	0.00	(1843)	0.00005	(2543)
George_Lucas	10	(134)	3	(835)	3	(39)	3	(39)	12571.85	(494)	0.00053	(461)
Gordon_Banks	1	(1694)	3	(835)	1	(1127)	1	(1316)	1119.50	(1447)	0.00008	(2186)
George_Best	3	(803)	2	(1229)	2	(305)	1	(1316)	4525.03	(957)	0.00017	(1489)
Aaron_Carter	2	(1180)	1	(1804)	1	(1127)	1	(1316)	742.16	(1509)	0.00012	(1842)
Robert_Altman	6	(331)	5	(449)	2	(305)	2	(444)	15427.44	(419)	0.00040	(727)
Katariina_Aragonialainen	3	(803)	9	(161)	2	(305)	2	(444)	6465.01	(796)	0.00012	(1852)
Yorkin_Elisabet	3	(803)	6	(326)	2	(305)	2	(444)	4012.09	(1030)	0.00011	(1943)
Henrik_VIII_(Englanti)	8	(201)	14	(44)	3	(39)	3	(39)	11960.79	(519)	0.00024	(1203)
Thomas_Cranmer	6	(331)	0	(2670)	3	(39)	0	(2545)	0.00	(1843)	0.00019	(1384)
Reza_Pahlavi	2	(1180)	1	(1804)	2	(305)	1	(1316)	0.00	(1843)	0.00015	(1650)
Kyyros_II_Suuri	2	(1180)	5	(449)	1	(1127)	2	(444)	11921.18	(521)	0.00012	(1864)
Hassan_II	2	(1180)	8	(193)	1	(1127)	3	(39)	9836.80	(603)	0.00017	(1523)
Ruhollah_Khomeini	6	(331)	3	(835)	2	(305)	2	(444)	3229.32	(1100)	0.00029	(980)
Mohammed_Mossadeq	2	(1180)	4	(603)	2	(305)	3	(39)	2214.01	(1244)	0.00018	(1437)
Paul_Thomas_Anderson	1	(1694)	3	(835)	1	(1127)	1	(1316)	164.67	(1646)	0.00008	(2180)
Julianne_Moore	4	(576)	0	(2670)	2	(305)	0	(2545)	0.00	(1843)	0.00015	(1620)
Philip_Seymour_Hoffman	3	(803)	2	(1229)	2	(305)	1	(1316)	1322.53	(1416)	0.00019	(1417)
Katariina_II	4	(576)	3	(835)	1	(1127)	1	(1316)	13483.03	(468)	0.00031	(919)
Eduard_Ševardnadze	3	(803)	2	(1229)	2	(305)	2	(444)	383.83	(1578)	0.00043	(666)
Andrei_Gromyko	2	(1180)	4	(603)	2	(305)	3	(39)	3336.01	(1091)	0.00047	(612)
George_Soros	0	(2528)	3	(835)	0	(2330)	2	(444)	0.00	(1843)	0.00005	(2543)
Karl_Popper	6	(331)	7	(246)	2	(305)	3	(39)	22761.18	(287)	0.00019	(1403)
Andrei_Saharov	3	(803)	1	(1804)	2	(305)	1	(1316)	420.70	(1569)	0.00037	(777)
Fjodor_III	2	(1180)	1	(1804)	1	(1127)	1	(1316)	0.00	(1843)	0.00184	(56)
Paul_Dirac	2	(1180)	4	(603)	1	(1127)	2	(444)	3923.69	(1038)	0.00012	(1863)
Werner_Heisenberg	4	(576)	2	(1229)	1	(1127)	2	(444)	9678.18	(609)	0.00017	(1516)
Erwin_Schrödinger	1	(1694)	8	(193)	1	(1127)	2	(444)	3679.32	(1055)	0.00008	(2239)
Carl_David_Anderson	2	(1180)	2	(1229)	1	(1127)	1	(1316)	2076.65	(1269)	0.00012	(1812)
William_Walton	0	(2528)	1	(1804)	0	(2330)	1	(1316)	0.00	(1843)	0.00005	(2680)
Paul_Hindemith	2	(1180)	1	(1804)	1	(1127)	1	(1316)	4016.44	(1028)	0.00016	(1573)
Paul_Gauguin	4	(576)	1	(1804)	1	(1127)	1	(1316)	6798.57	(765)	0.00048	(582)
Vidkun_Quisling	0	(2528)	1	(1804)	0	(2330)	0	(2545)	0.00	(1843)	0.00005	(2680)
Fridtjof_Nansen	2	(1180)	0	(2670)	1	(1127)	0	(2545)	0.00	(1843)	0.00013	(1747)
Patrice_Lumumba	3	(803)	2	(1229)	1	(1127)	1	(1316)	1796.31	(1353)	0.00016	(1570)
Dag_Hammarskjöld	3	(803)	4	(603)	2	(305)	2	(444)	6390.84	(806)	0.00027	(1060)
Kwame_Nkrumah	2	(1180)	0	(2670)	1	(1127)	0	(2545)	0.00	(1843)	0.00021	(1296)
Istuva_Härkä	1	(1694)	1	(1804)	1	(1127)	1	(1316)	0.00	(1843)	0.00071	(321)
Édith_Cresson	2	(1180)	1	(1804)	2	(305)	1	(1316)	1.00	(1822)	0.00024	(1197)
Roman_Pavljutšenko	0	(2528)	1	(1804)	0	(2330)	1	(1316)	0.00	(1843)	0.00005	(2680)
Dimităr_Berbatov	1	(1694)	2	(1229)	0	(2330)	1	(1316)	2058.00	(1297)	0.00010	(2009)
Edward_Albee	0	(2528)	4	(603)	0	(2330)	2	(444)	0.00	(1843)	0.00005	(2543)
Eugène_Ionesco	1	(1694)	0	(2670)	0	(2330)	0	(2545)	0.00	(1843)	0.00006	(2430)
Samuel_Beckett	5	(441)	3	(835)	1	(1127)	1	(1316)	31128.56	(212)	0.00016	(1568)
Mia_Farrow	3	(803)	4	(603)	2	(305)	2	(444)	5779.93	(850)	0.00023	(1221)
André_Previn	2	(1180)	1	(1804)	1	(1127)	1	(1316)	707.40	(1516)	0.00012	(1869)
Woody_Allen	16	(53)	3	(835)	3	(39)	2	(444)	35897.38	(179)	0.00092	(212)
Jamie_Foxx	3	(803)	11	(94)	3	(39)	3	(39)	96278.07	(55)	0.00020	(1330)
Pamela_Anderson	1	(1694)	3	(835)	1	(1127)	2	(444)	1276.77	(1423)	0.00011	(1887)
Margaret_(Englannin_prinsessa)	0	(2528)	8	(193)	0	(2330)	3	(39)	0.00	(1843)	0.00005	(2961)
Elisabet_(Yhdistyneen_kuningaskunnan_kuningatar)	2	(1180)	4	(603)	1	(1127)	3	(39)	3701.50	(1052)	0.00018	(1482)
Peter_Sellers	3	(803)	5	(449)	1	(1127)	2	(444)	5635.53	(866)	0.00012	(1815)
Bertrand_Russell	14	(70)	6	(326)	2	(305)	2	(444)	43543.19	(154)	0.00077	(281)
Alfred_North_Whitehead	3	(803)	1	(1804)	1	(1127)	1	(1316)	0.00	(1843)	0.00021	(1317)
Gottlob_Frege	5	(441)	0	(2670)	2	(305)	0	(2545)	0.00	(1843)	0.00047	(595)
John_Dewey	3	(803)	4	(603)	1	(1127)	2	(444)	5067.48	(916)	0.00020	(1326)
Herbert_Spencer	4	(576)	2	(1229)	1	(1127)	1	(1316)	3897.71	(1040)	0.00021	(1304)
Charles_Darwin	12	(91)	17	(32)	2	(305)	2	(444)	98737.47	(53)	0.00071	(319)
Auguste_Comte	3	(803)	0	(2670)	1	(1127)	0	(2545)	0.00	(1843)	0.00028	(1043)
Nikola_Tesla	1	(1694)	4	(603)	1	(1127)	2	(444)	8828.21	(640)	0.00017	(1501)
Christopher_Tolkien	1	(1694)	2	(1229)	1	(1127)	2	(444)	0.00	(1843)	0.00027	(1078)
Céline_Dion	4	(576)	15	(41)	1	(1127)	3	(39)	51535.39	(126)	0.00013	(1740)
Luciano_Pavarotti	4	(576)	5	(449)	2	(305)	1	(1316)	16440.35	(393)	0.00032	(893)
Gloria_Estefan	3	(803)	0	(2670)	1	(1127)	0	(2545)	0.00	(1843)	0.00015	(1647)
Andrea_Bocelli	2	(1180)	1	(1804)	1	(1127)	1	(1316)	1782.83	(1355)	0.00009	(2106)
Shania_Twain	2	(1180)	0	(2670)	1	(1127)	0	(2545)	0.00	(1843)	0.00008	(2230)
Yngwie_Malmsteen	4	(576)	4	(603)	2	(305)	2	(444)	6451.64	(798)	0.00024	(1195)
Sergei_Bagapš	0	(2528)	1	(1804)	0	(2330)	1	(1316)	0.00	(1843)	0.00005	(2680)
Basileios_Suuri	1	(1694)	0	(2670)	0	(2330)	0	(2545)	0.00	(1843)	0.00006	(2413)
Gregorios_Nazianzilainen	1	(1694)	0	(2670)	0	(2330)	0	(2545)	0.00	(1843)	0.00006	(2413)
Johannes_Vermeer	1	(1694)	6	(326)	1	(1127)	1	(1316)	5097.34	(912)	0.00013	(1759)
Antoni_van_Leeuwenhoek	2	(1180)	1	(1804)	1	(1127)	1	(1316)	5393.34	(888)	0.00009	(2164)
Marcel_Proust	5	(441)	0	(2670)	1	(1127)	0	(2545)	0.00	(1843)	0.00021	(1297)
Vilhelm_I_Oranialainen	1	(1694)	0	(2670)	1	(1127)	0	(2545)	0.00	(1843)	0.00007	(2330)
Tizian	4	(576)	1	(1804)	2	(305)	1	(1316)	12615.98	(492)	0.00103	(177)
Edgar_Davids	1	(1694)	1	(1804)	0	(2330)	1	(1316)	135.97	(1668)	0.00007	(2270)
Stevie_Wonder	7	(260)	2	(1229)	3	(39)	2	(444)	33386.25	(194)	0.00041	(698)
David_Ricardo	1	(1694)	5	(449)	1	(1127)	2	(444)	3781.95	(1046)	0.00023	(1229)
Thomas_Malthus	1	(1694)	6	(326)	1	(1127)	2	(444)	1922.05	(1342)	0.00009	(2103)
Alexander_Wurz	0	(2528)	1	(1804)	0	(2330)	1	(1316)	0.00	(1843)	0.00005	(2680)
John_Hurt	1	(1694)	2	(1229)	1	(1127)	1	(1316)	152.17	(1658)	0.00014	(1669)
Joseph_Merrick	3	(803)	1	(1804)	1	(1127)	1	(1316)	4683.08	(946)	0.00024	(1181)
Niels_Bohr	5	(441)	9	(161)	2	(305)	2	(444)	68951.84	(94)	0.00048	(585)
Joseph_John_Thomson	8	(201)	5	(449)	2	(305)	2	(444)	23007.25	(283)	0.00055	(446)
Søren_Kierkegaard	5	(441)	0	(2670)	2	(305)	0	(2545)	0.00	(1843)	0.00022	(1276)
Aage_Niels_Bohr	2	(1180)	2	(1229)	1	(1127)	1	(1316)	4408.00	(977)	0.00025	(1171)
Ernest_Rutherford	7	(260)	4	(603)	2	(305)	2	(444)	16777.72	(381)	0.00052	(537)
Elizabeth_H._Blackburn	1	(1694)	1	(1804)	1	(1127)	1	(1316)	0.00	(1843)	0.00052	(485)
Carol_W._Greider	1	(1694)	1	(1804)	1	(1127)	1	(1316)	0.00	(1843)	0.00052	(485)
Theodor_Adorno	2	(1180)	10	(128)	1	(1127)	2	(444)	2520.83	(1180)	0.00008	(2213)
Alban_Berg	8	(201)	3	(835)	2	(305)	2	(444)	4397.77	(982)	0.00067	(349)
Georg_Lukács	1	(1694)	1	(1804)	1	(1127)	0	(2545)	3.00	(1806)	0.00006	(2492)
Herbert_Marcuse	2	(1180)	4	(603)	1	(1127)	2	(444)	851.44	(1490)	0.00007	(2345)
Walter_Benjamin	1	(1694)	4	(603)	1	(1127)	2	(444)	120.99	(1678)	0.00006	(2491)
Krzysztof_Penderecki	1	(1694)	3	(835)	0	(2330)	2	(444)	546.65	(1542)	0.00006	(2421)
Karlheinz_Stockhausen	3	(803)	4	(603)	1	(1127)	2	(444)	6942.28	(750)	0.00025	(1162)
Anton_Webern	4	(576)	3	(835)	2	(305)	2	(444)	3962.59	(1035)	0.00043	(662)
Pierre_Boulez	5	(441)	2	(1229)	2	(305)	2	(444)	5593.29	(870)	0.00054	(456)
Suharto	3	(803)	3	(835)	1	(1127)	2	(444)	6176.00	(824)	0.00026	(1100)
Sukarno	1	(1694)	1	(1804)	1	(1127)	1	(1316)	0.00	(1843)	0.00013	(1760)
Juan_Román_Riquelme	1	(1694)	2	(1229)	1	(1127)	1	(1316)	9984.50	(592)	0.00009	(2080)
Robinho	3	(803)	0	(2670)	1	(1127)	0	(2545)	0.00	(1843)	0.00026	(1121)
The_Police	1	(1694)	4	(603)	1	(1127)	2	(444)	5323.86	(894)	0.00009	(2176)
David_Lynch	5	(441)	4	(603)	1	(1127)	1	(1316)	10949.77	(555)	0.00041	(705)
James_Chadwick	2	(1180)	1	(1804)	1	(1127)	1	(1316)	23.00	(1755)	0.00020	(1328)
George_de_Hevesy	1	(1694)	2	(1229)	1	(1127)	1	(1316)	27.87	(1750)	0.00017	(1521)
Miloš_Forman	3	(803)	2	(1229)	1	(1127)	1	(1316)	3740.96	(1048)	0.00029	(1007)
Herbert_Henry_Asquith	3	(803)	4	(603)	3	(39)	2	(444)	3159.02	(1111)	0.00058	(415)
Ramsay_MacDonald	3	(803)	9	(161)	3	(39)	3	(39)	9260.74	(624)	0.00048	(583)
Montesquieu	1	(1694)	1	(1804)	1	(1127)	1	(1316)	4313.50	(991)	0.00015	(1648)
Duke_Ellington	2	(1180)	4	(603)	2	(305)	2	(444)	3260.98	(1099)	0.00010	(1993)
Daniel_Brühl	0	(2528)	2	(1229)	0	(2330)	1	(1316)	0.00	(1843)	0.00005	(2965)
Maggie_Smith	2	(1180)	14	(44)	1	(1127)	2	(444)	15420.44	(420)	0.00014	(1678)
Judi_Dench	5	(441)	2	(1229)	2	(305)	1	(1316)	2885.54	(1136)	0.00035	(826)
Samuel_Barber	1	(1694)	1	(1804)	1	(1127)	1	(1316)	0.00	(1843)	0.00061	(403)
Gian_Carlo_Menotti	2	(1180)	1	(1804)	1	(1127)	1	(1316)	2.00	(1814)	0.00061	(396)
Hannibal	1	(1694)	1	(1804)	0	(2330)	1	(1316)	881.84	(1482)	0.00007	(2270)
Dashiell_Hammett	0	(2528)	3	(835)	0	(2330)	2	(444)	0.00	(1843)	0.00005	(2543)
Tim_Robbins	2	(1180)	2	(1229)	1	(1127)	1	(1316)	5785.22	(849)	0.00029	(1005)
Morgan_Freeman	4	(576)	2	(1229)	3	(39)	2	(444)	22736.78	(288)	0.00040	(724)
Mikael_(Portugali)	0	(2528)	2	(1229)	0	(2330)	1	(1316)	0.00	(1843)	0.00005	(2965)
Pedro_II	1	(1694)	1	(1804)	0	(2330)	1	(1316)	0.00	(1843)	0.00007	(2270)
Joseph_Brodsky	0	(2528)	1	(1804)	0	(2330)	1	(1316)	0.00	(1843)	0.00005	(2680)
Vincent_Cassel	1	(1694)	1	(1804)	1	(1127)	1	(1316)	0.00	(1843)	0.00009	(2114)
Monica_Bellucci	1	(1694)	3	(835)	1	(1127)	1	(1316)	2058.00	(1297)	0.00013	(1727)
Oskar_I	3	(803)	4	(603)	2	(305)	2	(444)	12274.65	(503)	0.00069	(339)
Kaarle_XV	3	(803)	4	(603)	2	(305)	2	(444)	6758.49	(772)	0.00064	(381)
Kaarle_XIII	2	(1180)	1	(1804)	2	(305)	1	(1316)	0.00	(1843)	0.00044	(657)
Kaarle_VIII_(Ranska)	0	(2528)	1	(1804)	0	(2330)	0	(2545)	0.00	(1843)	0.00005	(2680)
Ludvig_XII	3	(803)	0	(2670)	1	(1127)	0	(2545)	0.00	(1843)	0.00018	(1445)
Leni_Riefenstahl	1	(1694)	2	(1229)	1	(1127)	2	(444)	28806.69	(228)	0.00028	(1017)
Pietari_III_(Venäjä)	0	(2528)	1	(1804)	0	(2330)	1	(1316)	0.00	(1843)	0.00005	(2680)
Billy_Wilder	5	(441)	16	(34)	2	(305)	3	(39)	48307.67	(136)	0.00054	(447)
Marlene_Dietrich	7	(260)	7	(246)	2	(305)	3	(39)	16147.16	(403)	0.00036	(804)
Jack_Lemmon	4	(576)	3	(835)	2	(305)	1	(1316)	1349.26	(1413)	0.00016	(1586)
James_Cagney	1	(1694)	1	(1804)	1	(1127)	1	(1316)	239.56	(1621)	0.00008	(2200)
Ginger_Rogers	4	(576)	1	(1804)	2	(305)	1	(1316)	153.68	(1656)	0.00047	(600)
Gloria_Swanson	2	(1180)	0	(2670)	1	(1127)	0	(2545)	0.00	(1843)	0.00011	(1948)
Buster_Keaton	3	(803)	3	(835)	2	(305)	1	(1316)	9398.31	(621)	0.00019	(1389)
Audrey_Hepburn	8	(201)	4	(603)	2	(305)	2	(444)	20807.50	(309)	0.00073	(308)
William_Holden	4	(576)	2	(1229)	2	(305)	2	(444)	952.91	(1473)	0.00015	(1599)
Jegor_Gaidar	1	(1694)	1	(1804)	1	(1127)	1	(1316)	0.00	(1843)	0.00034	(860)
Roman_Abramovitš	3	(803)	0	(2670)	2	(305)	0	(2545)	0.00	(1843)	0.00052	(483)
Marvin_Gaye	0	(2528)	3	(835)	0	(2330)	2	(444)	0.00	(1843)	0.00005	(2543)
Chuck_Berry	3	(803)	3	(835)	2	(305)	3	(39)	7227.80	(724)	0.00030	(948)
Stevie_Ray_Vaughan	2	(1180)	3	(835)	2	(305)	2	(444)	2442.67	(1190)	0.00025	(1135)
Jim_Morrison	4	(576)	2	(1229)	1	(1127)	1	(1316)	3515.22	(1070)	0.00018	(1458)
Charlton_Heston	4	(576)	12	(72)	2	(305)	3	(39)	40507.68	(162)	0.00021	(1311)
Sophia_Loren	4	(576)	2	(1229)	2	(305)	2	(444)	10702.31	(562)	0.00022	(1259)
Michael_Moore	2	(1180)	2	(1229)	2	(305)	1	(1316)	4227.26	(998)	0.00016	(1541)
Barbara_Stanwyck	4	(576)	9	(161)	2	(305)	3	(39)	11110.04	(548)	0.00023	(1244)
Gregory_Peck	5	(441)	4	(603)	2	(305)	2	(444)	7737.69	(695)	0.00030	(954)
William_Morris	3	(803)	6	(326)	1	(1127)	2	(444)	9981.56	(593)	0.00011	(1900)
Dante_Gabriel_Rossetti	2	(1180)	6	(326)	1	(1127)	2	(444)	6936.72	(751)	0.00010	(2005)
John_Ruskin	1	(1694)	2	(1229)	1	(1127)	1	(1316)	5.00	(1792)	0.00007	(2357)
Pjotr_Kropotkin	4	(576)	0	(2670)	2	(305)	0	(2545)	0.00	(1843)	0.00028	(1040)
C._S._Lewis	5	(441)	2	(1229)	2	(305)	1	(1316)	4523.94	(958)	0.00036	(796)
Friedrich_Engels	5	(441)	1	(1804)	2	(305)	1	(1316)	432.68	(1567)	0.00102	(178)
Willem-Alexander	1	(1694)	1	(1804)	1	(1127)	1	(1316)	0.00	(1843)	0.00018	(1464)
Klaas-Jan_Huntelaar	0	(2528)	3	(835)	0	(2330)	0	(2545)	0.00	(1843)	0.00005	(2543)
Arjen_Robben	5	(441)	0	(2670)	1	(1127)	0	(2545)	0.00	(1843)	0.00046	(625)
Royston_Drenthe	1	(1694)	0	(2670)	0	(2330)	0	(2545)	0.00	(1843)	0.00007	(2377)
Wesley_Sneijder	1	(1694)	0	(2670)	0	(2330)	0	(2545)	0.00	(1843)	0.00007	(2377)
Aleksanteri_VIII	2	(1180)	2	(1229)	2	(305)	2	(444)	22886.00	(285)	0.00061	(400)
Innocentius_XII	2	(1180)	2	(1229)	2	(305)	2	(444)	22386.34	(293)	0.00091	(220)
Edvard_III	5	(441)	3	(835)	2	(305)	2	(444)	5750.97	(856)	0.00071	(318)
Heidi_Klum	0	(2528)	2	(1229)	0	(2330)	2	(444)	0.00	(1843)	0.00005	(2965)
Tyra_Banks	3	(803)	3	(835)	1	(1127)	2	(444)	14085.97	(453)	0.00019	(1410)
Roy_Hodgson	3	(803)	2	(1229)	2	(305)	2	(444)	22015.13	(295)	0.00021	(1301)
Emmanuel_Adebayor	1	(1694)	2	(1229)	1	(1127)	1	(1316)	2652.50	(1163)	0.00009	(2077)
Jack_London	1	(1694)	0	(2670)	1	(1127)	0	(2545)	0.00	(1843)	0.00007	(2322)
Evo_Morales	1	(1694)	3	(835)	1	(1127)	3	(39)	0.00	(1843)	0.00007	(2321)
Jules_Verne	4	(576)	1	(1804)	2	(305)	1	(1316)	4437.52	(970)	0.00026	(1109)
Simone_de_Beauvoir	3	(803)	4	(603)	2	(305)	2	(444)	3397.92	(1083)	0.00019	(1425)
Fulgencio_Batista	2	(1180)	1	(1804)	2	(305)	1	(1316)	0.00	(1843)	0.00019	(1385)
Jean-Paul_Sartre	13	(80)	3	(835)	2	(305)	2	(444)	31494.34	(208)	0.00033	(880)
Judy_Garland	3	(803)	1	(1804)	2	(305)	1	(1316)	1840.44	(1350)	0.00041	(693)
Jeremy_Irons	0	(2528)	1	(1804)	0	(2330)	0	(2545)	0.00	(1843)	0.00005	(2680)
Juhana_II_(Portugali)	0	(2528)	1	(1804)	0	(2330)	0	(2545)	0.00	(1843)	0.00005	(2680)
W._Somerset_Maugham	1	(1694)	1	(1804)	1	(1127)	1	(1316)	5609.58	(868)	0.00011	(1889)
Carl_Rogers	0	(2528)	1	(1804)	0	(2330)	0	(2545)	0.00	(1843)	0.00005	(2680)
Abraham_Maslow	1	(1694)	0	(2670)	0	(2330)	0	(2545)	0.00	(1843)	0.00010	(2015)
Josep_Borrell	0	(2528)	2	(1229)	0	(2330)	1	(1316)	0.00	(1843)	0.00005	(2965)
Sienna_Miller	1	(1694)	2	(1229)	1	(1127)	1	(1316)	2904.04	(1135)	0.00009	(2153)
Knuut_III_Hardeknut	2	(1180)	2	(1229)	2	(305)	2	(444)	1181.00	(1437)	0.00077	(280)
Ernst_Mach	3	(803)	1	(1804)	1	(1127)	1	(1316)	6170.00	(829)	0.00032	(890)
Luiz_Felipe_Scolari	1	(1694)	1	(1804)	1	(1127)	1	(1316)	0.00	(1843)	0.00048	(588)
Wilhelm_Frick	1	(1694)	2	(1229)	1	(1127)	2	(444)	19.48	(1758)	0.00014	(1718)
Flo_Rida	3	(803)	6	(326)	2	(305)	3	(39)	2396.93	(1197)	0.00014	(1691)
Dima_Bilan	1	(1694)	8	(193)	1	(1127)	3	(39)	4990.63	(920)	0.00009	(2085)
Brian_Eno	3	(803)	2	(1229)	2	(305)	1	(1316)	2325.57	(1234)	0.00029	(1000)
Aaliyah	1	(1694)	0	(2670)	1	(1127)	0	(2545)	0.00	(1843)	0.00009	(2085)
Katy_Perry	2	(1180)	4	(603)	2	(305)	2	(444)	1032.22	(1465)	0.00012	(1833)
Nelly_Furtado	5	(441)	2	(1229)	2	(305)	2	(444)	2599.51	(1170)	0.00022	(1257)
Kaarle_II_(Englanti)	0	(2528)	9	(161)	0	(2330)	2	(444)	0.00	(1843)	0.00005	(2657)
Christopher_Wren	3	(803)	0	(2670)	1	(1127)	0	(2545)	0.00	(1843)	0.00016	(1562)
Aleksanteri_I_(Jugoslavia)	0	(2528)	3	(835)	0	(2330)	3	(39)	0.00	(1843)	0.00005	(2543)
Wim_Duisenberg	1	(1694)	1	(1804)	1	(1127)	1	(1316)	0.00	(1843)	0.00052	(485)
Jean-Claude_Trichet	1	(1694)	1	(1804)	1	(1127)	1	(1316)	0.00	(1843)	0.00052	(485)
Cher	4	(576)	0	(2670)	2	(305)	0	(2545)	0.00	(1843)	0.00018	(1438)
Semjon_Timošenko	1	(1694)	2	(1229)	1	(1127)	2	(444)	0.00	(1843)	0.00015	(1641)
Warren_G._Harding	4	(576)	2	(1229)	2	(305)	2	(444)	3182.10	(1109)	0.00140	(99)
Calvin_Coolidge	7	(260)	3	(835)	2	(305)	2	(444)	16590.23	(387)	0.00154	(80)
Josef_Mengele	2	(1180)	1	(1804)	1	(1127)	1	(1316)	1255.99	(1428)	0.00016	(1575)
Henry_Fonda	6	(331)	2	(1229)	2	(305)	2	(444)	7721.67	(699)	0.00034	(858)
Frank_Capra	3	(803)	0	(2670)	2	(305)	0	(2545)	0.00	(1843)	0.00026	(1126)
Aleksei_Nikolajevitš_Romanov	1	(1694)	2	(1229)	1	(1127)	2	(444)	0.00	(1843)	0.00016	(1581)
Ralph_Nader	2	(1180)	1	(1804)	2	(305)	1	(1316)	119.97	(1679)	0.00035	(814)
August_Ferdinand_Möbius	0	(2528)	2	(1229)	0	(2330)	2	(444)	0.00	(1843)	0.00005	(2965)
Cixi	1	(1694)	0	(2670)	1	(1127)	0	(2545)	0.00	(1843)	0.00035	(820)
Luigi_Pirandello	0	(2528)	1	(1804)	0	(2330)	1	(1316)	0.00	(1843)	0.00005	(2680)
Ignatius_Loyola	0	(2528)	1	(1804)	0	(2330)	1	(1316)	0.00	(1843)	0.00005	(2680)
Paavali_III	6	(331)	1	(1804)	2	(305)	1	(1316)	18588.79	(347)	0.00233	(35)
Patrick_Vieira	5	(441)	2	(1229)	2	(305)	2	(444)	135.88	(1669)	0.00067	(348)
John_Lennon	13	(80)	11	(94)	3	(39)	3	(39)	55710.67	(117)	0.00156	(78)
Freddie_Mercury	3	(803)	5	(449)	1	(1127)	3	(39)	6423.16	(803)	0.00028	(1035)
Klotar_I	1	(1694)	1	(1804)	1	(1127)	1	(1316)	0.00	(1843)	0.00095	(197)
Juan_Carlos_Ferrero	6	(331)	9	(161)	4	(17)	4	(26)	5160.56	(908)	0.00034	(849)
Heath_Ledger	9	(159)	9	(161)	2	(305)	2	(444)	50922.65	(128)	0.00053	(473)
Halle_Berry	2	(1180)	0	(2670)	2	(305)	0	(2545)	0.00	(1843)	0.00015	(1609)
Colin_Farrell	3	(803)	3	(835)	2	(305)	2	(444)	26202.79	(249)	0.00021	(1308)
Sherilyn_Fenn	1	(1694)	2	(1229)	1	(1127)	1	(1316)	2648.45	(1165)	0.00011	(1911)
Kate_Moss	4	(576)	3	(835)	1	(1127)	1	(1316)	8652.70	(648)	0.00015	(1622)
Uma_Thurman	4	(576)	14	(44)	2	(305)	3	(39)	69413.12	(93)	0.00028	(1020)
Arnold_Schwarzenegger	6	(331)	8	(193)	2	(305)	3	(39)	21379.83	(302)	0.00031	(917)
Tenzin_Gyatso	1	(1694)	0	(2670)	1	(1127)	0	(2545)	0.00	(1843)	0.00007	(2339)
Ralph_Fiennes	1	(1694)	0	(2670)	1	(1127)	0	(2545)	0.00	(1843)	0.00007	(2339)
John_Woo	3	(803)	6	(326)	2	(305)	3	(39)	184309.66	(19)	0.00016	(1569)
Chris_Columbus	2	(1180)	0	(2670)	1	(1127)	0	(2545)	0.00	(1843)	0.00011	(1937)
Meryl_Streep	6	(331)	27	(6)	2	(305)	3	(39)	153565.46	(28)	0.00065	(369)
Vanessa_Redgrave	3	(803)	3	(835)	2	(305)	2	(444)	11602.40	(535)	0.00027	(1082)
Ethan_Hawke	2	(1180)	1	(1804)	2	(305)	1	(1316)	4007.81	(1031)	0.00013	(1746)
Franz_von_Papen	6	(331)	8	(193)	3	(39)	3	(39)	24380.44	(266)	0.00075	(293)
Eva_Braun	2	(1180)	2	(1229)	2	(305)	2	(444)	14.56	(1765)	0.00044	(655)
Martin_Bormann	4	(576)	5	(449)	3	(39)	3	(39)	692.00	(1518)	0.00051	(549)
Hermann_Göring	10	(134)	9	(161)	3	(39)	3	(39)	8666.79	(647)	0.00094	(202)
Karl_Dönitz	5	(441)	2	(1229)	2	(305)	1	(1316)	2353.00	(1221)	0.00080	(260)
Juan_Martín_del_Potro	4	(576)	14	(44)	4	(17)	5	(1)	505.56	(1552)	0.00018	(1429)
Jevgeni_Zamjatin	0	(2528)	1	(1804)	0	(2330)	1	(1316)	0.00	(1843)	0.00005	(2680)
Hafiz_al-Assad	1	(1694)	1	(1804)	1	(1127)	1	(1316)	0.00	(1843)	0.00009	(2139)
Bašar_al-Assad	2	(1180)	5	(449)	1	(1127)	2	(444)	4118.00	(1009)	0.00021	(1285)
Laurent_Gbagbo	1	(1694)	2	(1229)	1	(1127)	1	(1316)	4181.28	(1001)	0.00010	(1961)
Félix_Houphouët-Boigny	1	(1694)	1	(1804)	1	(1127)	0	(2545)	953.46	(1472)	0.00010	(2004)
Martin_Weinek	0	(2528)	1	(1804)	0	(2330)	0	(2545)	0.00	(1843)	0.00005	(2680)
Kaspar_Capparoni	1	(1694)	0	(2670)	0	(2330)	0	(2545)	0.00	(1843)	0.00010	(2015)
Frans_II_(Ranska)	0	(2528)	1	(1804)	0	(2330)	1	(1316)	0.00	(1843)	0.00005	(2680)
Maria_I_(Skotlanti)	6	(331)	3	(835)	2	(305)	2	(444)	4910.77	(923)	0.00020	(1374)
Robin_Williams	8	(201)	2	(1229)	3	(39)	1	(1316)	14324.78	(448)	0.00049	(565)
Conan_O’Brien	5	(441)	1	(1804)	2	(305)	1	(1316)	10467.80	(569)	0.00045	(634)
Joseph_Pulitzer	1	(1694)	1	(1804)	1	(1127)	1	(1316)	0.00	(1843)	0.00010	(1994)
William_Randolph_Hearst	2	(1180)	7	(246)	1	(1127)	3	(39)	14032.11	(456)	0.00037	(774)
Eiichirō_Oda	0	(2528)	1	(1804)	0	(2330)	0	(2545)	0.00	(1843)	0.00005	(2680)
Akira_Toriyama	2	(1180)	0	(2670)	0	(2330)	0	(2545)	0.00	(1843)	0.00014	(1666)
Mauno_Koivisto	3	(803)	9	(161)	2	(305)	3	(39)	13748.91	(463)	0.00016	(1543)
Martti_Ahtisaari	4	(576)	7	(246)	2	(305)	3	(39)	12064.22	(517)	0.00018	(1481)
Paavo_Lipponen	1	(1694)	7	(246)	1	(1127)	3	(39)	3110.27	(1115)	0.00007	(2360)
Fernão_de_Magalhães	1	(1694)	0	(2670)	1	(1127)	0	(2545)	0.00	(1843)	0.00006	(2448)
Rikhard_II	2	(1180)	1	(1804)	1	(1127)	1	(1316)	155.63	(1654)	0.00029	(996)
Heinrich_Böll	1	(1694)	2	(1229)	1	(1127)	2	(444)	10438.79	(570)	0.00007	(2364)
Anna_Tšakvetadze	3	(803)	4	(603)	3	(39)	3	(39)	0.00	(1843)	0.00010	(1963)
Nadja_Petrova	9	(159)	0	(2670)	6	(1)	0	(2545)	0.00	(1843)	0.00024	(1174)
Jean-Michel_Basquiat	0	(2528)	3	(835)	0	(2330)	2	(444)	0.00	(1843)	0.00005	(2543)
Dennis_Hopper	2	(1180)	3	(835)	1	(1127)	2	(444)	1554.61	(1385)	0.00011	(1907)
Billy_Graham	0	(2528)	3	(835)	0	(2330)	2	(444)	0.00	(1843)	0.00005	(2543)
Peter_Paul_Rubens	6	(331)	1	(1804)	2	(305)	1	(1316)	4782.11	(936)	0.00072	(312)
Nigel_Reo-Coker	0	(2528)	2	(1229)	0	(2330)	1	(1316)	0.00	(1843)	0.00005	(2965)
Theo_Walcott	2	(1180)	3	(835)	1	(1127)	2	(444)	14032.17	(455)	0.00014	(1677)
Aaron_Lennon	1	(1694)	0	(2670)	0	(2330)	0	(2545)	0.00	(1843)	0.00007	(2270)
Oskar_Schindler	1	(1694)	1	(1804)	1	(1127)	1	(1316)	0.00	(1843)	0.00028	(1037)
Alfonso_XIII	4	(576)	4	(603)	2	(305)	2	(444)	5438.92	(884)	0.00070	(327)
Alfonso_XII	1	(1694)	1	(1804)	1	(1127)	1	(1316)	0.00	(1843)	0.00021	(1299)
José_de_San_Martín	1	(1694)	1	(1804)	0	(2330)	1	(1316)	1176.16	(1439)	0.00007	(2270)
Manmohan_Singh	0	(2528)	2	(1229)	0	(2330)	2	(444)	0.00	(1843)	0.00005	(2965)
Elisabeth_Schwarzkopf	0	(2528)	4	(603)	0	(2330)	2	(444)	0.00	(1843)	0.00005	(2543)
Georgios_Andreas_Papandreu	1	(1694)	2	(1229)	0	(2330)	1	(1316)	2061.00	(1280)	0.00010	(2009)
Karolos_Papulias	1	(1694)	0	(2670)	0	(2330)	0	(2545)	0.00	(1843)	0.00010	(2065)
Abolhassan_Banisadr	1	(1694)	1	(1804)	0	(2330)	1	(1316)	49.57	(1732)	0.00006	(2463)
William_Wyler	1	(1694)	1	(1804)	1	(1127)	1	(1316)	1435.38	(1401)	0.00009	(2127)
Leopold_III_(Belgia)	1	(1694)	2	(1229)	1	(1127)	2	(444)	276.70	(1608)	0.00008	(2254)
Fredrik_Vilhelm_I_(Preussi)	0	(2528)	1	(1804)	0	(2330)	1	(1316)	0.00	(1843)	0.00005	(2680)
Fredrik_I_Barbarossa	4	(576)	3	(835)	1	(1127)	1	(1316)	14.00	(1766)	0.00050	(556)
Stephen_King	5	(441)	3	(835)	3	(39)	2	(444)	54451.00	(122)	0.00033	(873)
Alec_Guinness	2	(1180)	8	(193)	1	(1127)	2	(444)	3498.21	(1071)	0.00008	(2211)
Gaetano_Donizetti	4	(576)	3	(835)	2	(305)	1	(1316)	8253.69	(666)	0.00024	(1207)
Katariina_Howard	4	(576)	7	(246)	3	(39)	3	(39)	1234.07	(1432)	0.00016	(1553)
Gary_Neville	3	(803)	5	(449)	1	(1127)	2	(444)	18585.40	(348)	0.00024	(1200)
Paul_Scholes	2	(1180)	0	(2670)	1	(1127)	0	(2545)	0.00	(1843)	0.00014	(1708)
Ryan_Giggs	2	(1180)	5	(449)	1	(1127)	2	(444)	14892.69	(437)	0.00013	(1725)
Rio_Ferdinand	5	(441)	7	(246)	1	(1127)	1	(1316)	28220.89	(234)	0.00029	(987)
Roy_Keane	3	(803)	2	(1229)	1	(1127)	1	(1316)	15888.84	(410)	0.00020	(1352)
Ben_Kingsley	3	(803)	2	(1229)	2	(305)	2	(444)	4859.22	(929)	0.00030	(950)
Josh_Hartnett	1	(1694)	1	(1804)	1	(1127)	1	(1316)	0.00	(1843)	0.00011	(1885)
Lester_B._Pearson	1	(1694)	0	(2670)	1	(1127)	0	(2545)	0.00	(1843)	0.00011	(1939)
Doris_Lessing	0	(2528)	7	(246)	0	(2330)	2	(444)	0.00	(1843)	0.00005	(3087)
B._B._King	1	(1694)	0	(2670)	1	(1127)	0	(2545)	0.00	(1843)	0.00016	(1584)
Robert_Johnson	2	(1180)	1	(1804)	1	(1127)	1	(1316)	219.34	(1629)	0.00018	(1440)
Bob_Marley	1	(1694)	2	(1229)	1	(1127)	2	(444)	244.39	(1619)	0.00016	(1585)
Henri_Rousseau	1	(1694)	2	(1229)	0	(2330)	1	(1316)	12.08	(1771)	0.00006	(2504)
Alan_Lloyd_Hodgkin	1	(1694)	1	(1804)	1	(1127)	1	(1316)	0.00	(1843)	0.00052	(485)
Andrew_Huxley	1	(1694)	1	(1804)	1	(1127)	1	(1316)	0.00	(1843)	0.00052	(485)
José_Manuel_Barroso	4	(576)	2	(1229)	1	(1127)	1	(1316)	5798.56	(848)	0.00025	(1144)
Mahmud_Darwish	1	(1694)	2	(1229)	0	(2330)	2	(444)	116.31	(1683)	0.00007	(2371)
Fritz_Lang	2	(1180)	12	(72)	2	(305)	3	(39)	24251.48	(269)	0.00019	(1420)
Jean-Luc_Godard	3	(803)	6	(326)	2	(305)	2	(444)	9687.76	(608)	0.00012	(1840)
Graham_Greene	7	(260)	0	(2670)	2	(305)	0	(2545)	0.00	(1843)	0.00049	(566)
Hans_Christian_Ørsted	1	(1694)	3	(835)	1	(1127)	1	(1316)	6462.00	(797)	0.00025	(1152)
Alessandro_Volta	1	(1694)	2	(1229)	1	(1127)	1	(1316)	1512.42	(1389)	0.00013	(1784)
André-Marie_Ampère	3	(803)	1	(1804)	1	(1127)	1	(1316)	6758.00	(773)	0.00022	(1264)
Bhumibol_Adulyadej	1	(1694)	2	(1229)	1	(1127)	1	(1316)	3083.02	(1120)	0.00011	(1944)
Thaksin_Shinawatra	2	(1180)	0	(2670)	1	(1127)	0	(2545)	0.00	(1843)	0.00019	(1383)
Jean_Baudrillard	0	(2528)	1	(1804)	0	(2330)	1	(1316)	0.00	(1843)	0.00005	(2680)
Lee_Marvin	1	(1694)	2	(1229)	1	(1127)	2	(444)	137.15	(1666)	0.00013	(1783)
Leslie_Howard	3	(803)	1	(1804)	2	(305)	1	(1316)	3613.68	(1062)	0.00040	(719)
Morrissey	2	(1180)	7	(246)	1	(1127)	3	(39)	11344.87	(539)	0.00014	(1686)
Babe_Ruth	1	(1694)	1	(1804)	1	(1127)	0	(2545)	0.00	(1843)	0.00008	(2243)
Aristofanes	2	(1180)	2	(1229)	1	(1127)	2	(444)	401.32	(1574)	0.00010	(1953)
Theodor_Heuss	1	(1694)	0	(2670)	1	(1127)	0	(2545)	0.00	(1843)	0.00007	(2398)
J._Edgar_Hoover	4	(576)	12	(72)	2	(305)	3	(39)	12772.49	(487)	0.00032	(902)
Norman_Mailer	1	(1694)	2	(1229)	1	(1127)	2	(444)	3193.45	(1107)	0.00018	(1431)
Pyhä_Stefanos	0	(2528)	1	(1804)	0	(2330)	1	(1316)	0.00	(1843)	0.00005	(2680)
Samuel_Eto'o	1	(1694)	4	(603)	1	(1127)	2	(444)	5512.78	(876)	0.00007	(2394)
Patrick_Kluivert	2	(1180)	0	(2670)	2	(305)	0	(2545)	0.00	(1843)	0.00012	(1808)
Abou_Diaby	0	(2528)	4	(603)	0	(2330)	2	(444)	0.00	(1843)	0.00005	(2543)
John_Terry	5	(441)	1	(1804)	1	(1127)	1	(1316)	9031.46	(631)	0.00024	(1194)
Mathieu_Flamini	2	(1180)	0	(2670)	0	(2330)	0	(2545)	0.00	(1843)	0.00007	(2298)
Alexandre_Song	1	(1694)	5	(449)	0	(2330)	2	(444)	43.13	(1739)	0.00006	(2426)
Al_Oerter	1	(1694)	1	(1804)	1	(1127)	1	(1316)	0.00	(1843)	0.00027	(1065)
Jesse_Owens	1	(1694)	2	(1229)	1	(1127)	1	(1316)	10323.05	(576)	0.00027	(1066)
Ellen_DeGeneres	1	(1694)	1	(1804)	1	(1127)	1	(1316)	0.00	(1843)	0.00010	(2064)
Eddie_Murphy	4	(576)	5	(449)	2	(305)	2	(444)	12761.79	(488)	0.00025	(1167)
Rudolf_Hess	4	(576)	5	(449)	3	(39)	3	(39)	48352.63	(135)	0.00062	(393)
Albert_Speer	6	(331)	2	(1229)	3	(39)	2	(444)	158.31	(1649)	0.00080	(267)
Arthur_H._Compton	0	(2528)	3	(835)	0	(2330)	1	(1316)	0.00	(1843)	0.00005	(2543)
Charles_Thomson_Rees_Wilson	1	(1694)	0	(2670)	0	(2330)	0	(2545)	0.00	(1843)	0.00007	(2377)
Owen_Willans_Richardson	3	(803)	1	(1804)	2	(305)	1	(1316)	1165.53	(1442)	0.00028	(1021)
Hans_Geiger	1	(1694)	1	(1804)	0	(2330)	1	(1316)	2015.22	(1329)	0.00007	(2377)
H._G._Wells	2	(1180)	0	(2670)	1	(1127)	0	(2545)	0.00	(1843)	0.00036	(794)
Henri_Bergson	1	(1694)	2	(1229)	1	(1127)	1	(1316)	93.33	(1701)	0.00007	(2397)
Sergio_Leone	7	(260)	10	(128)	3	(39)	3	(39)	138725.48	(37)	0.00050	(560)
Mario_Puzo	3	(803)	1	(1804)	3	(39)	1	(1316)	1763.54	(1361)	0.00023	(1248)
Vittorio_de_Sica	2	(1180)	0	(2670)	2	(305)	0	(2545)	0.00	(1843)	0.00022	(1278)
John_Ford	4	(576)	1	(1804)	2	(305)	1	(1316)	471.71	(1558)	0.00227	(39)
Lee_Van_Cleef	1	(1694)	3	(835)	1	(1127)	2	(444)	2814.58	(1141)	0.00010	(2060)
Ennio_Morricone	1	(1694)	1	(1804)	1	(1127)	1	(1316)	0.00	(1843)	0.00010	(2060)
James_Hetfield	1	(1694)	2	(1229)	1	(1127)	2	(444)	1087.47	(1456)	0.00013	(1739)
Lars_Ulrich	2	(1180)	2	(1229)	1	(1127)	2	(444)	125.92	(1675)	0.00018	(1439)
Franco_Baresi	0	(2528)	1	(1804)	0	(2330)	1	(1316)	0.00	(1843)	0.00005	(2680)
Javier_Bardem	1	(1694)	1	(1804)	1	(1127)	1	(1316)	0.00	(1843)	0.00014	(1656)
Mario_Andretti	0	(2528)	1	(1804)	0	(2330)	0	(2545)	0.00	(1843)	0.00005	(2680)
Alberto_Ascari	2	(1180)	0	(2670)	1	(1127)	0	(2545)	0.00	(1843)	0.00015	(1639)
John_Milton	2	(1180)	2	(1229)	1	(1127)	1	(1316)	7031.40	(743)	0.00015	(1618)
Kevin_Spacey	4	(576)	2	(1229)	2	(305)	1	(1316)	645.00	(1527)	0.00013	(1750)
Karl_Ferdinand_Braun	1	(1694)	1	(1804)	1	(1127)	1	(1316)	0.00	(1843)	0.00014	(1681)
Guglielmo_Marconi	2	(1180)	2	(1229)	1	(1127)	1	(1316)	2202.52	(1247)	0.00020	(1339)
Laozi	0	(2528)	3	(835)	0	(2330)	1	(1316)	0.00	(1843)	0.00005	(2543)
Sima_Qian	2	(1180)	0	(2670)	1	(1127)	0	(2545)	0.00	(1843)	0.00008	(2263)
Seneca_nuorempi	1	(1694)	10	(128)	1	(1127)	2	(444)	23339.67	(279)	0.00035	(815)
Hesiodos	2	(1180)	3	(835)	1	(1127)	2	(444)	3531.90	(1066)	0.00013	(1788)
James_Franck	2	(1180)	1	(1804)	1	(1127)	1	(1316)	6.72	(1788)	0.00033	(864)
Max_von_Laue	3	(803)	2	(1229)	1	(1127)	2	(444)	5962.43	(839)	0.00031	(927)
Fredrik_IX	2	(1180)	2	(1229)	2	(305)	2	(444)	4576.91	(952)	0.00021	(1312)
Kristian_X	2	(1180)	4	(603)	2	(305)	2	(444)	10225.76	(580)	0.00031	(931)
Margareeta_II	2	(1180)	2	(1229)	2	(305)	2	(444)	7969.63	(681)	0.00019	(1401)
Lou_Reed	2	(1180)	2	(1229)	1	(1127)	1	(1316)	255.84	(1614)	0.00007	(2395)
Mary_Steenburgen	0	(2528)	1	(1804)	0	(2330)	1	(1316)	0.00	(1843)	0.00005	(2680)
Philip_Roth	1	(1694)	1	(1804)	1	(1127)	1	(1316)	0.00	(1843)	0.00063	(384)
Charles_W._Fairbanks	0	(2528)	2	(1229)	0	(2330)	2	(444)	0.00	(1843)	0.00005	(2965)
Anaksimandros	1	(1694)	6	(326)	0	(2330)	3	(39)	28.27	(1748)	0.00006	(2516)
Pythagoras	3	(803)	3	(835)	0	(2330)	2	(444)	89.55	(1704)	0.00007	(2396)
John_Rawls	3	(803)	1	(1804)	2	(305)	1	(1316)	3073.33	(1122)	0.00054	(459)
Claire_Danes	0	(2528)	9	(161)	0	(2330)	2	(444)	0.00	(1843)	0.00005	(2657)
Diane_Keaton	1	(1694)	2	(1229)	0	(2330)	2	(444)	305.72	(1600)	0.00006	(2511)
Ed_Harris	1	(1694)	4	(603)	0	(2330)	1	(1316)	50.31	(1730)	0.00006	(2510)
Sarah_Jessica_Parker	3	(803)	6	(326)	1	(1127)	2	(444)	32838.31	(201)	0.00018	(1444)
Hermann_von_Helmholtz	4	(576)	8	(193)	2	(305)	2	(444)	20113.63	(321)	0.00072	(315)
Wilhelm_Wundt	3	(803)	0	(2670)	1	(1127)	0	(2545)	0.00	(1843)	0.00017	(1511)
Wilhelm_Wien	4	(576)	1	(1804)	2	(305)	1	(1316)	6327.32	(810)	0.00043	(669)
Albert_Abraham_Michelson	2	(1180)	4	(603)	2	(305)	2	(444)	8437.00	(658)	0.00042	(678)
Heinrich_Hertz	6	(331)	3	(835)	2	(305)	2	(444)	12951.47	(481)	0.00057	(430)
Tuomas_(apostoli)	0	(2528)	4	(603)	0	(2330)	2	(444)	0.00	(1843)	0.00005	(2543)
Henri_Troyat	0	(2528)	4	(603)	0	(2330)	2	(444)	0.00	(1843)	0.00005	(2543)
Anton_Tšehov	6	(331)	0	(2670)	2	(305)	0	(2545)	0.00	(1843)	0.00027	(1054)
Jens_Stoltenberg	0	(2528)	1	(1804)	0	(2330)	0	(2545)	0.00	(1843)	0.00005	(2680)
Gro_Harlem_Brundtland	1	(1694)	0	(2670)	0	(2330)	0	(2545)	0.00	(1843)	0.00010	(2015)
Albert_Camus	2	(1180)	3	(835)	2	(305)	1	(1316)	3875.35	(1043)	0.00019	(1390)
Park_Ji-seong	1	(1694)	2	(1229)	0	(2330)	1	(1316)	11.67	(1775)	0.00007	(2371)
Gianfranco_Zola	0	(2528)	2	(1229)	0	(2330)	1	(1316)	0.00	(1843)	0.00005	(2965)
Ruud_Gullit	2	(1180)	2	(1229)	1	(1127)	1	(1316)	12064.53	(516)	0.00035	(829)
Charles_Lindbergh	3	(803)	4	(603)	1	(1127)	3	(39)	8458.38	(656)	0.00014	(1684)
Robert_Goddard	1	(1694)	3	(835)	1	(1127)	2	(444)	2942.52	(1129)	0.00008	(2190)
Giambologna	0	(2528)	3	(835)	0	(2330)	2	(444)	0.00	(1843)	0.00005	(2543)
James_B._Sumner	0	(2528)	1	(1804)	0	(2330)	1	(1316)	0.00	(1843)	0.00005	(2680)
Theodor_Svedberg	1	(1694)	1	(1804)	0	(2330)	1	(1316)	2058.00	(1297)	0.00010	(2015)
Bill_Gates	3	(803)	1	(1804)	1	(1127)	1	(1316)	685.03	(1524)	0.00153	(81)
Paul_Allen	2	(1180)	1	(1804)	1	(1127)	1	(1316)	469.96	(1559)	0.00151	(87)
John_James_Audubon	0	(2528)	1	(1804)	0	(2330)	1	(1316)	0.00	(1843)	0.00005	(2680)
Peter_Mandelson	1	(1694)	3	(835)	1	(1127)	2	(444)	2137.93	(1261)	0.00025	(1165)
Denzel_Washington	4	(576)	2	(1229)	2	(305)	2	(444)	5251.12	(899)	0.00033	(874)
Steve_Biko	2	(1180)	3	(835)	2	(305)	2	(444)	7006.25	(746)	0.00030	(949)
Kenneth_Grahame	1	(1694)	1	(1804)	1	(1127)	1	(1316)	1954.08	(1337)	0.00009	(2145)
Marcello_Mastroianni	3	(803)	4	(603)	2	(305)	2	(444)	6510.69	(791)	0.00027	(1073)
John_Donne	1	(1694)	0	(2670)	1	(1127)	0	(2545)	0.00	(1843)	0.00017	(1519)
Juan_Manuel_Fangio	3	(803)	1	(1804)	3	(39)	1	(1316)	15955.90	(409)	0.00021	(1323)
Ksenofon	5	(441)	2	(1229)	2	(305)	1	(1316)	7272.44	(722)	0.00023	(1215)
Lucy_Lawless	0	(2528)	1	(1804)	0	(2330)	1	(1316)	0.00	(1843)	0.00005	(2680)
Jun'ichirō_Koizumi	1	(1694)	1	(1804)	1	(1127)	1	(1316)	6174.00	(826)	0.00014	(1704)
Jaakko_V	3	(803)	0	(2670)	2	(305)	0	(2545)	0.00	(1843)	0.00013	(1744)
Jaakko_I_(Englanti)	4	(576)	4	(603)	2	(305)	2	(444)	16884.14	(379)	0.00018	(1467)
Fredrik_V	4	(576)	2	(1229)	2	(305)	1	(1316)	17555.27	(363)	0.00103	(175)
Fredrik_VII	3	(803)	2	(1229)	2	(305)	2	(444)	2591.65	(1171)	0.00063	(391)
Haile_Selassie	4	(576)	3	(835)	2	(305)	2	(444)	4815.73	(932)	0.00046	(617)
Viktor_Emanuel_III	4	(576)	4	(603)	2	(305)	3	(39)	5884.47	(842)	0.00048	(579)
Salomo	2	(1180)	0	(2670)	1	(1127)	0	(2545)	0.00	(1843)	0.00020	(1338)
Augustin_Jean_Fresnel	0	(2528)	1	(1804)	0	(2330)	0	(2545)	0.00	(1843)	0.00005	(2680)
Thomas_Young	1	(1694)	0	(2670)	0	(2330)	0	(2545)	0.00	(1843)	0.00010	(2015)
Gabriel_García_Márquez	2	(1180)	2	(1229)	2	(305)	2	(444)	7174.67	(729)	0.00015	(1645)
Jason_Statham	2	(1180)	1	(1804)	2	(305)	1	(1316)	867.37	(1487)	0.00013	(1749)
Sylvester_Stallone	5	(441)	7	(246)	2	(305)	3	(39)	61750.99	(107)	0.00034	(832)
Jet_Li	3	(803)	0	(2670)	2	(305)	0	(2545)	0.00	(1843)	0.00017	(1515)
Tony_Curtis	2	(1180)	4	(603)	1	(1127)	2	(444)	6397.43	(805)	0.00023	(1214)
John_Forbes_Nash	1	(1694)	2	(1229)	1	(1127)	1	(1316)	743.02	(1508)	0.00008	(2242)
Ron_Howard	2	(1180)	5	(449)	1	(1127)	1	(1316)	8922.78	(636)	0.00011	(1945)
Herakleios	0	(2528)	1	(1804)	0	(2330)	1	(1316)	0.00	(1843)	0.00005	(2680)
Jean_Reno	1	(1694)	2	(1229)	1	(1127)	1	(1316)	601.57	(1532)	0.00006	(2501)
Władysław_Reymont	0	(2528)	1	(1804)	0	(2330)	1	(1316)	0.00	(1843)	0.00005	(2680)
Andrzej_Wajda	1	(1694)	2	(1229)	0	(2330)	2	(444)	2058.00	(1312)	0.00010	(2009)
Rafik_Hariri	1	(1694)	1	(1804)	1	(1127)	1	(1316)	0.00	(1843)	0.00009	(2139)
Klemens_X	2	(1180)	4	(603)	2	(305)	2	(444)	5290.31	(897)	0.00031	(914)
Emir_Kusturica	0	(2528)	1	(1804)	0	(2330)	1	(1316)	0.00	(1843)	0.00005	(2680)
Nick_Heidfeld	4	(576)	5	(449)	3	(39)	3	(39)	2421.91	(1194)	0.00022	(1253)
Damon_Hill	5	(441)	6	(326)	3	(39)	3	(39)	245.32	(1618)	0.00039	(738)
Heather_Graham	1	(1694)	1	(1804)	1	(1127)	1	(1316)	0.00	(1843)	0.00010	(1955)
Susilo_Bambang_Yudhoyono	0	(2528)	1	(1804)	0	(2330)	1	(1316)	0.00	(1843)	0.00005	(2680)
Drew_Barrymore	3	(803)	2	(1229)	2	(305)	2	(444)	6850.28	(760)	0.00039	(734)
Kurt_Cobain	6	(331)	7	(246)	2	(305)	2	(444)	52417.33	(125)	0.00078	(274)
Katariina_de’_Medici	3	(803)	1	(1804)	1	(1127)	1	(1316)	7365.36	(718)	0.00032	(885)
Joe_DiMaggio	1	(1694)	2	(1229)	1	(1127)	2	(444)	257.15	(1613)	0.00013	(1765)
Javier_Pérez_de_Cuéllar	4	(576)	3	(835)	2	(305)	3	(39)	8822.24	(641)	0.00024	(1178)
Gene_Simmons	1	(1694)	8	(193)	1	(1127)	2	(444)	7426.17	(712)	0.00006	(2419)
Tom_Selleck	1	(1694)	0	(2670)	1	(1127)	0	(2545)	0.00	(1843)	0.00006	(2494)
Ville_Valo	1	(1694)	3	(835)	1	(1127)	2	(444)	50.28	(1731)	0.00006	(2493)
Jean-Marie_Le_Pen	4	(576)	2	(1229)	3	(39)	2	(444)	538.43	(1544)	0.00053	(471)
Henry_Ford	2	(1180)	4	(603)	1	(1127)	3	(39)	19595.28	(325)	0.00022	(1266)
Thomas_Paine	1	(1694)	1	(1804)	1	(1127)	1	(1316)	1763.57	(1360)	0.00017	(1501)
Spencer_Tracy	3	(803)	2	(1229)	2	(305)	2	(444)	18093.53	(357)	0.00123	(126)
Robert_Redford	5	(441)	0	(2670)	2	(305)	0	(2545)	0.00	(1843)	0.00013	(1745)
Wolfgang_Petersen	4	(576)	0	(2670)	2	(305)	0	(2545)	0.00	(1843)	0.00017	(1536)
Anthony_Minghella	2	(1180)	0	(2670)	1	(1127)	0	(2545)	0.00	(1843)	0.00009	(2163)
Frank_B._Kellogg	1	(1694)	1	(1804)	1	(1127)	1	(1316)	430.94	(1568)	0.00009	(2144)
Pierre_Laval	2	(1180)	2	(1229)	1	(1127)	1	(1316)	6652.47	(781)	0.00025	(1150)
Rosalynn_Carter	0	(2528)	1	(1804)	0	(2330)	1	(1316)	0.00	(1843)	0.00005	(2680)
Erwin_von_Witzleben	0	(2528)	5	(449)	0	(2330)	2	(444)	0.00	(1843)	0.00005	(2660)
Kurt_von_Schleicher	3	(803)	2	(1229)	2	(305)	2	(444)	58.30	(1727)	0.00038	(758)
Gerd_von_Rundstedt	2	(1180)	7	(246)	1	(1127)	3	(39)	4852.23	(931)	0.00013	(1769)
Claus_von_Stauffenberg	3	(803)	2	(1229)	1	(1127)	1	(1316)	5497.91	(879)	0.00031	(922)
Helen_Keller	1	(1694)	4	(603)	1	(1127)	2	(444)	1383.19	(1408)	0.00010	(1977)
Alexander_Graham_Bell	2	(1180)	3	(835)	1	(1127)	2	(444)	2185.26	(1251)	0.00017	(1537)
Dolly_Parton	3	(803)	1	(1804)	2	(305)	1	(1316)	3437.94	(1077)	0.00016	(1560)
George_Michael	7	(260)	4	(603)	2	(305)	3	(39)	12271.23	(505)	0.00031	(932)
Whoopi_Goldberg	1	(1694)	1	(1804)	1	(1127)	1	(1316)	444.02	(1565)	0.00010	(2051)
John_Howard	3	(803)	4	(603)	1	(1127)	3	(39)	10624.96	(565)	0.00017	(1493)
Edward_Norton	3	(803)	2	(1229)	2	(305)	2	(444)	18121.87	(356)	0.00024	(1204)
John_McCain	6	(331)	5	(449)	2	(305)	3	(39)	6899.25	(755)	0.00069	(337)
Abdullah	2	(1180)	1	(1804)	1	(1127)	1	(1316)	2354.00	(1205)	0.00075	(292)
Sarah_Palin	2	(1180)	2	(1229)	2	(305)	1	(1316)	2353.00	(1221)	0.00022	(1268)
Sun_Myung_Moon	1	(1694)	2	(1229)	1	(1127)	2	(444)	7481.81	(708)	0.00009	(2079)
Forest_Whitaker	2	(1180)	0	(2670)	2	(305)	0	(2545)	0.00	(1843)	0.00019	(1416)
Michelle_Obama	3	(803)	1	(1804)	2	(305)	1	(1316)	0.00	(1843)	0.00018	(1484)
Ali_Khamenei	3	(803)	0	(2670)	2	(305)	0	(2545)	0.00	(1843)	0.00021	(1318)
Oprah_Winfrey	3	(803)	1	(1804)	2	(305)	0	(2545)	2354.00	(1205)	0.00014	(1672)
Tiger_Woods	2	(1180)	0	(2670)	2	(305)	0	(2545)	0.00	(1843)	0.00014	(1663)
Colin_Powell	6	(331)	6	(326)	3	(39)	3	(39)	9943.01	(595)	0.00081	(258)
Billie_Joe_Armstrong	3	(803)	2	(1229)	1	(1127)	1	(1316)	20224.42	(319)	0.00032	(913)
John_Cleese	2	(1180)	1	(1804)	1	(1127)	0	(2545)	1206.02	(1436)	0.00013	(1778)
Brad_Pitt	8	(201)	4	(603)	2	(305)	2	(444)	10832.51	(560)	0.00028	(1023)
Al_Gore	6	(331)	5	(449)	3	(39)	3	(39)	4369.70	(986)	0.00126	(121)
Kurt_Georg_Kiesinger	2	(1180)	3	(835)	2	(305)	2	(444)	1117.89	(1449)	0.00026	(1091)
Ludwig_Erhard	3	(803)	3	(835)	2	(305)	2	(444)	3688.88	(1053)	0.00052	(544)
Walter_Scheel	2	(1180)	3	(835)	2	(305)	2	(444)	2965.79	(1128)	0.00026	(1091)
Homeros	7	(260)	8	(193)	1	(1127)	2	(444)	25314.52	(254)	0.00038	(748)
Gwyneth_Paltrow	2	(1180)	2	(1229)	1	(1127)	1	(1316)	47.99	(1734)	0.00012	(1811)
Chris_Brown_(laulaja)	0	(2528)	2	(1229)	0	(2330)	2	(444)	0.00	(1843)	0.00005	(2965)
Wernher_von_Braun	2	(1180)	4	(603)	1	(1127)	2	(444)	6199.38	(821)	0.00027	(1080)
Konstantin_Tsiolkovski	2	(1180)	1	(1804)	1	(1127)	1	(1316)	2075.77	(1270)	0.00012	(1819)
Lionel_Messi	2	(1180)	5	(449)	1	(1127)	2	(444)	4892.63	(925)	0.00022	(1254)
Zlatan_Ibrahimović	2	(1180)	1	(1804)	1	(1127)	1	(1316)	47.32	(1735)	0.00009	(2133)
Herbert_Hoover	6	(331)	4	(603)	2	(305)	2	(444)	27575.74	(242)	0.00182	(57)
Martin_Chalfie	1	(1694)	1	(1804)	1	(1127)	1	(1316)	0.00	(1843)	0.00052	(485)
Osamu_Shimomura	1	(1694)	1	(1804)	1	(1127)	1	(1316)	0.00	(1843)	0.00052	(485)
Desmond_Tutu	2	(1180)	3	(835)	2	(305)	1	(1316)	6277.24	(814)	0.00013	(1736)
K.d._lang	0	(2528)	1	(1804)	0	(2330)	1	(1316)	0.00	(1843)	0.00005	(2680)
Siad_Barre	2	(1180)	1	(1804)	0	(2330)	1	(1316)	4116.00	(1013)	0.00014	(1666)
Antonio_Vivaldi	2	(1180)	0	(2670)	2	(305)	0	(2545)	0.00	(1843)	0.00037	(776)
Théodore_Géricault	0	(2528)	2	(1229)	0	(2330)	1	(1316)	0.00	(1843)	0.00005	(2965)
William_Henry_Harrison	3	(803)	4	(603)	2	(305)	3	(39)	7668.27	(703)	0.00052	(539)
John_Tyler	2	(1180)	6	(326)	2	(305)	3	(39)	2459.24	(1187)	0.00029	(985)
Martin_Van_Buren	6	(331)	6	(326)	2	(305)	3	(39)	9038.79	(630)	0.00108	(156)
John_Adams	6	(331)	5	(449)	3	(39)	3	(39)	8916.45	(637)	0.00133	(107)
Walt_Whitman	3	(803)	6	(326)	1	(1127)	2	(444)	10887.36	(557)	0.00012	(1844)
Emily_Dickinson	1	(1694)	0	(2670)	1	(1127)	0	(2545)	0.00	(1843)	0.00007	(2346)
Ralph_Waldo_Emerson	2	(1180)	3	(835)	1	(1127)	2	(444)	4088.95	(1022)	0.00012	(1866)
Emmanuel_Eboué	0	(2528)	2	(1229)	0	(2330)	1	(1316)	0.00	(1843)	0.00005	(2965)
Edmond_H._Fischer	1	(1694)	1	(1804)	1	(1127)	1	(1316)	0.00	(1843)	0.00052	(485)
Edwin_G._Krebs	1	(1694)	1	(1804)	1	(1127)	1	(1316)	0.00	(1843)	0.00052	(485)
Steven_Tyler	2	(1180)	2	(1229)	2	(305)	2	(444)	0.00	(1843)	0.00012	(1809)
Charlize_Theron	1	(1694)	1	(1804)	0	(2330)	1	(1316)	215.34	(1631)	0.00006	(2430)
Julian_Cannonball_Adderley	1	(1694)	1	(1804)	1	(1127)	1	(1316)	0.00	(1843)	0.00007	(2367)
Julius_Nyerere	0	(2528)	1	(1804)	0	(2330)	0	(2545)	0.00	(1843)	0.00005	(2680)
Robert_Mugabe	2	(1180)	0	(2670)	1	(1127)	0	(2545)	0.00	(1843)	0.00014	(1702)
Francis_Galton	1	(1694)	1	(1804)	1	(1127)	1	(1316)	0.00	(1843)	0.00009	(2148)
Karl_Carstens	1	(1694)	1	(1804)	1	(1127)	1	(1316)	91.22	(1703)	0.00013	(1753)
Audrey_Tautou	1	(1694)	0	(2670)	1	(1127)	0	(2545)	0.00	(1843)	0.00012	(1847)
Kaarle_VI_(Ranska)	0	(2528)	2	(1229)	0	(2330)	1	(1316)	0.00	(1843)	0.00005	(2965)
Steve_Wozniak	0	(2528)	1	(1804)	0	(2330)	0	(2545)	0.00	(1843)	0.00005	(2680)
Steve_Jobs	1	(1694)	0	(2670)	0	(2330)	0	(2545)	0.00	(1843)	0.00010	(2015)
Mihail_Šolohov	0	(2528)	1	(1804)	0	(2330)	1	(1316)	0.00	(1843)	0.00005	(2680)
Stéphane_Mallarmé	1	(1694)	9	(161)	1	(1127)	2	(444)	11995.04	(518)	0.00020	(1329)
Rainer_Maria_Rilke	3	(803)	1	(1804)	1	(1127)	1	(1316)	5570.63	(872)	0.00019	(1421)
John_Paul_Jones	1	(1694)	3	(835)	1	(1127)	1	(1316)	27585.41	(241)	0.00019	(1426)
Jimmy_Page	3	(803)	3	(835)	2	(305)	2	(444)	84057.04	(72)	0.00014	(1660)
Robert_Plant	1	(1694)	1	(1804)	1	(1127)	1	(1316)	738.81	(1511)	0.00011	(1941)
Wilhelm_Ostwald	2	(1180)	0	(2670)	1	(1127)	0	(2545)	0.00	(1843)	0.00017	(1524)
Werner_von_Siemens	1	(1694)	0	(2670)	1	(1127)	0	(2545)	0.00	(1843)	0.00014	(1661)
Hermann_Minkowski	2	(1180)	0	(2670)	1	(1127)	0	(2545)	0.00	(1843)	0.00016	(1583)
Erik_H._Erikson	1	(1694)	0	(2670)	1	(1127)	0	(2545)	0.00	(1843)	0.00014	(1661)
Chester_Nimitz	1	(1694)	0	(2670)	1	(1127)	0	(2545)	0.00	(1843)	0.00041	(694)
Holly_Hunter	0	(2528)	1	(1804)	0	(2330)	1	(1316)	0.00	(1843)	0.00005	(2680)
Andrew_Wiles	1	(1694)	0	(2670)	1	(1127)	0	(2545)	0.00	(1843)	0.00023	(1216)
Roberto_Rossellini	3	(803)	2	(1229)	2	(305)	1	(1316)	1998.02	(1332)	0.00027	(1083)
Ingrid_Bergman	6	(331)	7	(246)	3	(39)	2	(444)	16842.73	(380)	0.00067	(350)
Kevin_Rudd	2	(1180)	2	(1229)	1	(1127)	2	(444)	2444.65	(1189)	0.00014	(1676)
Kaarle_IX_(Ranska)	0	(2528)	1	(1804)	0	(2330)	1	(1316)	0.00	(1843)	0.00005	(2680)
Carla_Bruni	1	(1694)	5	(449)	1	(1127)	3	(39)	7965.46	(682)	0.00010	(1962)
Donald_Trump	3	(803)	3	(835)	1	(1127)	1	(1316)	34284.58	(188)	0.00014	(1687)
Eugène_Delacroix	4	(576)	2	(1229)	2	(305)	1	(1316)	10325.56	(575)	0.00036	(809)
William_Blake	4	(576)	2	(1229)	1	(1127)	1	(1316)	27292.61	(243)	0.00032	(912)
Usain_Bolt	1	(1694)	3	(835)	1	(1127)	1	(1316)	4124.00	(1005)	0.00019	(1391)
Asafa_Powell	2	(1180)	1	(1804)	1	(1127)	1	(1316)	2063.00	(1276)	0.00016	(1591)
Joan_Sutherland	1	(1694)	5	(449)	1	(1127)	2	(444)	5765.18	(854)	0.00011	(1917)
Guillermo_Coria	5	(441)	0	(2670)	4	(17)	0	(2545)	0.00	(1843)	0.00025	(1159)
Eugene_O'Neill	8	(201)	4	(603)	2	(305)	1	(1316)	16708.05	(383)	0.00044	(647)
Lothar_Matthäus	1	(1694)	1	(1804)	1	(1127)	1	(1316)	0.00	(1843)	0.00021	(1307)
George_Paget_Thomson	2	(1180)	2	(1229)	2	(305)	1	(1316)	1282.32	(1419)	0.00019	(1392)
Clinton_Davisson	2	(1180)	3	(835)	2	(305)	1	(1316)	2187.46	(1250)	0.00039	(732)
Guy_Verhofstadt	1	(1694)	4	(603)	1	(1127)	2	(444)	4116.00	(1017)	0.00015	(1617)
Yves_Leterme	2	(1180)	2	(1229)	1	(1127)	1	(1316)	2060.00	(1288)	0.00022	(1258)
Kaarle_VI_(keisari)	0	(2528)	1	(1804)	0	(2330)	1	(1316)	0.00	(1843)	0.00005	(2680)
Dwayne_Johnson	0	(2528)	1	(1804)	0	(2330)	0	(2545)	0.00	(1843)	0.00005	(2680)
Bamir_Topi	1	(1694)	1	(1804)	1	(1127)	1	(1316)	0.00	(1843)	0.00052	(485)
Alfred_Moisiu	1	(1694)	1	(1804)	1	(1127)	1	(1316)	0.00	(1843)	0.00052	(485)
Alan_Shearer	2	(1180)	1	(1804)	1	(1127)	1	(1316)	9695.42	(607)	0.00025	(1146)
Slipknot	1	(1694)	1	(1804)	0	(2330)	1	(1316)	243.49	(1620)	0.00006	(2463)
Richard_F._Heck	1	(1694)	1	(1804)	1	(1127)	1	(1316)	0.00	(1843)	0.00052	(485)
Eiichi_Negishi	1	(1694)	1	(1804)	1	(1127)	1	(1316)	0.00	(1843)	0.00052	(485)
Ewan_McGregor	2	(1180)	5	(449)	2	(305)	1	(1316)	12154.09	(512)	0.00016	(1567)
Danny_Boyle	1	(1694)	0	(2670)	1	(1127)	0	(2545)	0.00	(1843)	0.00008	(2214)
Ada_Lovelace	2	(1180)	1	(1804)	2	(305)	0	(2545)	104.98	(1693)	0.00016	(1596)
Henrik_IV_(Ranska)	0	(2528)	1	(1804)	0	(2330)	1	(1316)	0.00	(1843)	0.00005	(2680)
Ludvig_XIII	3	(803)	1	(1804)	1	(1127)	1	(1316)	2144.71	(1257)	0.00021	(1306)
Dennis_Ritchie	1	(1694)	1	(1804)	1	(1127)	1	(1316)	0.00	(1843)	0.00071	(317)
Ken_Thompson	2	(1180)	1	(1804)	1	(1127)	1	(1316)	2.00	(1814)	0.00074	(298)
Anita_Ekberg	1	(1694)	2	(1229)	1	(1127)	1	(1316)	119.95	(1680)	0.00011	(1898)
Catherine_Deneuve	2	(1180)	5	(449)	1	(1127)	2	(444)	7067.93	(737)	0.00025	(1147)
Alexandra_(Yhdistyneen_kuningaskunnan_kuningatar)	0	(2528)	3	(835)	0	(2330)	2	(444)	0.00	(1843)	0.00005	(2543)
Steve_Irwin	0	(2528)	3	(835)	0	(2330)	1	(1316)	0.00	(1843)	0.00005	(2543)
Jackie_Chan	2	(1180)	1	(1804)	2	(305)	1	(1316)	1615.05	(1378)	0.00011	(1876)
Bruce_Lee	2	(1180)	5	(449)	2	(305)	1	(1316)	2839.32	(1139)	0.00022	(1277)
Ivan_Konev	0	(2528)	2	(1229)	0	(2330)	2	(444)	0.00	(1843)	0.00005	(2965)
Chad_Michael_Murray	1	(1694)	1	(1804)	1	(1127)	1	(1316)	0.00	(1843)	0.00052	(485)
Sophia_Bush	1	(1694)	1	(1804)	1	(1127)	1	(1316)	0.00	(1843)	0.00052	(485)
Anastacia	1	(1694)	1	(1804)	1	(1127)	0	(2545)	11.34	(1777)	0.00006	(2411)
Yoko_Ono	4	(576)	1	(1804)	2	(305)	1	(1316)	0.00	(1843)	0.00030	(976)
William_Ewart_Gladstone	3	(803)	2	(1229)	1	(1127)	1	(1316)	3470.47	(1075)	0.00019	(1394)
Gordianus_III	0	(2528)	1	(1804)	0	(2330)	1	(1316)	0.00	(1843)	0.00005	(2680)
David_Hilbert	0	(2528)	4	(603)	0	(2330)	1	(1316)	0.00	(1843)	0.00005	(2543)
John_Frusciante	2	(1180)	7	(246)	2	(305)	2	(444)	2333.67	(1233)	0.00008	(2197)
Flea	2	(1180)	4	(603)	2	(305)	2	(444)	92.39	(1702)	0.00008	(2255)
Red_Hot_Chili_Peppers	3	(803)	6	(326)	2	(305)	2	(444)	1495.58	(1391)	0.00009	(2108)
Emile_Heskey	1	(1694)	2	(1229)	1	(1127)	1	(1316)	6625.09	(783)	0.00007	(2353)
Milan_Baroš	1	(1694)	1	(1804)	1	(1127)	1	(1316)	2405.23	(1195)	0.00008	(2198)
Sepp_Blatter	0	(2528)	1	(1804)	0	(2330)	0	(2545)	0.00	(1843)	0.00005	(2680)
João_Havelange	1	(1694)	0	(2670)	0	(2330)	0	(2545)	0.00	(1843)	0.00010	(2015)
Piet_Mondrian	2	(1180)	2	(1229)	1	(1127)	1	(1316)	11.08	(1778)	0.00015	(1631)
Georges_Braque	4	(576)	2	(1229)	1	(1127)	1	(1316)	4468.19	(967)	0.00027	(1058)
Mohamed_Sissoko	0	(2528)	1	(1804)	0	(2330)	1	(1316)	0.00	(1843)	0.00005	(2680)
Daniel_Bernoulli	2	(1180)	2	(1229)	1	(1127)	1	(1316)	3674.44	(1056)	0.00017	(1518)
Johann_Bernoulli	4	(576)	1	(1804)	1	(1127)	1	(1316)	3471.15	(1074)	0.00031	(918)
Leonhard_Euler	2	(1180)	8	(193)	1	(1127)	2	(444)	8890.08	(638)	0.00041	(702)
George_Gamov	0	(2528)	1	(1804)	0	(2330)	1	(1316)	0.00	(1843)	0.00005	(2680)
Jens_Lehmann	3	(803)	6	(326)	2	(305)	2	(444)	8033.06	(678)	0.00028	(1016)
Manuel_Almunia	1	(1694)	1	(1804)	1	(1127)	1	(1316)	0.00	(1843)	0.00009	(2081)
Łukasz_Fabiański	1	(1694)	0	(2670)	1	(1127)	0	(2545)	0.00	(1843)	0.00009	(2081)
Sokrates	4	(576)	11	(94)	1	(1127)	2	(444)	14318.68	(449)	0.00013	(1803)
Alkibiades	1	(1694)	2	(1229)	1	(1127)	1	(1316)	0.00	(1843)	0.00006	(2454)
Percy_Bysshe_Shelley	1	(1694)	4	(603)	1	(1127)	1	(1316)	4236.06	(997)	0.00006	(2454)
Benjamin_Franklin	6	(331)	2	(1229)	3	(39)	2	(444)	3821.50	(1044)	0.00098	(191)
Leonard_Bernstein	3	(803)	0	(2670)	1	(1127)	0	(2545)	0.00	(1843)	0.00015	(1640)
James_Cook	0	(2528)	1	(1804)	0	(2330)	0	(2545)	0.00	(1843)	0.00005	(2680)
Edward_Heath	4	(576)	6	(326)	3	(39)	3	(39)	5688.12	(863)	0.00041	(707)
Nikolaus_Harnoncourt	0	(2528)	2	(1229)	0	(2330)	2	(444)	0.00	(1843)	0.00005	(2965)
Jean_Auguste_Dominique_Ingres	1	(1694)	7	(246)	1	(1127)	2	(444)	6021.34	(837)	0.00021	(1286)
Edgar_Degas	3	(803)	0	(2670)	1	(1127)	0	(2545)	0.00	(1843)	0.00014	(1699)
Mary_Robinson	1	(1694)	1	(1804)	1	(1127)	1	(1316)	0.00	(1843)	0.00010	(2054)
Simeon_Sakskoburggotski	2	(1180)	3	(835)	1	(1127)	2	(444)	10279.06	(577)	0.00014	(1695)
Kaarle_XVI_Kustaa	2	(1180)	1	(1804)	2	(305)	1	(1316)	2403.32	(1196)	0.00011	(1878)
Jacques-Yves_Cousteau	1	(1694)	5	(449)	1	(1127)	1	(1316)	782.04	(1503)	0.00008	(2205)
John_Denver	1	(1694)	0	(2670)	1	(1127)	0	(2545)	0.00	(1843)	0.00007	(2400)
Jean-Michel_Jarre	1	(1694)	2	(1229)	1	(1127)	1	(1316)	391.29	(1577)	0.00007	(2400)
Ted_Turner	2	(1180)	1	(1804)	1	(1127)	1	(1316)	457.75	(1563)	0.00010	(1960)
Frantz_Fanon	0	(2528)	3	(835)	0	(2330)	2	(444)	0.00	(1843)	0.00005	(2543)
Aimé_Césaire	1	(1694)	2	(1229)	0	(2330)	2	(444)	500.30	(1554)	0.00007	(2371)
Maurice_Merleau-Ponty	3	(803)	6	(326)	1	(1127)	2	(444)	16480.16	(391)	0.00010	(2000)
William_Lawrence_Bragg	1	(1694)	5	(449)	1	(1127)	2	(444)	6585.34	(787)	0.00013	(1763)
William_Bragg	2	(1180)	2	(1229)	1	(1127)	2	(444)	7044.67	(741)	0.00017	(1503)
Aleksanteri_VII	4	(576)	2	(1229)	2	(305)	2	(444)	10660.37	(563)	0.00059	(409)
Klemens_IX	2	(1180)	3	(835)	2	(305)	2	(444)	4705.11	(943)	0.00039	(735)
Innocentius_X	4	(576)	3	(835)	2	(305)	2	(444)	11908.34	(523)	0.00058	(420)
Nelson_Piquet	2	(1180)	3	(835)	2	(305)	3	(39)	0.00	(1843)	0.00020	(1370)
Harald_zur_Hausen	1	(1694)	2	(1229)	1	(1127)	1	(1316)	0.00	(1843)	0.00036	(798)
Françoise_Barré-Sinoussi	2	(1180)	1	(1804)	1	(1127)	1	(1316)	0.00	(1843)	0.00052	(484)
Luc_Montagnier	2	(1180)	2	(1229)	1	(1127)	1	(1316)	1.00	(1822)	0.00068	(343)
Clara_Schumann	0	(2528)	1	(1804)	0	(2330)	1	(1316)	0.00	(1843)	0.00005	(2680)
Logan_Lerman	0	(2528)	10	(128)	0	(2330)	2	(444)	0.00	(1843)	0.00005	(2542)
Renée_Zellweger	1	(1694)	1	(1804)	0	(2330)	0	(2545)	0.00	(1843)	0.00006	(2514)
Christian_Bale	2	(1180)	0	(2670)	1	(1127)	0	(2545)	0.00	(1843)	0.00011	(1922)
Jessica_Alba	1	(1694)	2	(1229)	0	(2330)	0	(2545)	3.00	(1806)	0.00006	(2515)
Milla_Jovovich	2	(1180)	2	(1229)	1	(1127)	1	(1316)	2565.24	(1176)	0.00033	(869)
Pierce_Brosnan	5	(441)	1	(1804)	2	(305)	1	(1316)	252.54	(1616)	0.00020	(1331)
Gerard_Butler	2	(1180)	0	(2670)	1	(1127)	0	(2545)	0.00	(1843)	0.00008	(2227)
Noam_Chomsky	1	(1694)	2	(1229)	1	(1127)	1	(1316)	6380.97	(807)	0.00013	(1762)
Tal_Ben_Haim	0	(2528)	3	(835)	0	(2330)	1	(1316)	0.00	(1843)	0.00005	(2543)
Ricardo_Carvalho	2	(1180)	1	(1804)	1	(1127)	1	(1316)	15966.24	(408)	0.00011	(1931)
Hans_Bethe	0	(2528)	1	(1804)	0	(2330)	1	(1316)	0.00	(1843)	0.00005	(2680)
Bernard_Montgomery	2	(1180)	3	(835)	1	(1127)	3	(39)	1764.06	(1359)	0.00017	(1506)
Fredrik_Reinfeldt	1	(1694)	2	(1229)	1	(1127)	2	(444)	6509.83	(792)	0.00016	(1572)
Johannes_Krysostomos	0	(2528)	1	(1804)	0	(2330)	1	(1316)	0.00	(1843)	0.00005	(2680)
Sarah_Brightman	0	(2528)	1	(1804)	0	(2330)	1	(1316)	0.00	(1843)	0.00005	(2680)
Felipe_Massa	7	(260)	4	(603)	3	(39)	3	(39)	7137.39	(734)	0.00029	(990)
Heikki_Kovalainen	1	(1694)	10	(128)	1	(1127)	3	(39)	24621.53	(263)	0.00010	(2049)
Gottlieb_Daimler	1	(1694)	2	(1229)	1	(1127)	1	(1316)	0.00	(1843)	0.00009	(2090)
Karl_Benz	1	(1694)	2	(1229)	1	(1127)	1	(1316)	0.00	(1843)	0.00009	(2090)
Nicolaus_Otto	2	(1180)	0	(2670)	1	(1127)	0	(2545)	0.00	(1843)	0.00014	(1714)
Pierre_Bérégovoy	2	(1180)	4	(603)	2	(305)	2	(444)	37.47	(1741)	0.00025	(1158)
Laurent_Fabius	2	(1180)	3	(835)	2	(305)	2	(444)	3663.94	(1057)	0.00024	(1199)
Sam_Mendes	1	(1694)	1	(1804)	1	(1127)	1	(1316)	0.00	(1843)	0.00008	(2225)
Kate_Winslet	3	(803)	6	(326)	1	(1127)	2	(444)	11085.48	(550)	0.00018	(1432)
Richard_Stallman	1	(1694)	1	(1804)	1	(1127)	1	(1316)	0.00	(1843)	0.00009	(2114)
Linus_Torvalds	1	(1694)	3	(835)	1	(1127)	1	(1316)	2072.00	(1272)	0.00013	(1727)
Steve_Nash	3	(803)	0	(2670)	1	(1127)	0	(2545)	0.00	(1843)	0.00013	(1768)
Fabio_Grosso	1	(1694)	0	(2670)	1	(1127)	0	(2545)	0.00	(1843)	0.00008	(2258)
Pavel_Nedvěd	1	(1694)	1	(1804)	1	(1127)	1	(1316)	64.77	(1721)	0.00008	(2258)
Stephen_Hawking	1	(1694)	3	(835)	1	(1127)	2	(444)	1563.47	(1384)	0.00009	(2175)
Theodosius_I	2	(1180)	2	(1229)	1	(1127)	1	(1316)	17604.50	(362)	0.00026	(1110)
Alfred_Suuri	1	(1694)	1	(1804)	1	(1127)	1	(1316)	0.00	(1843)	0.00052	(485)
Edvard_Vanhempi	1	(1694)	1	(1804)	1	(1127)	1	(1316)	0.00	(1843)	0.00052	(485)
Jörg_Haider	1	(1694)	1	(1804)	0	(2330)	1	(1316)	2058.00	(1297)	0.00010	(2015)
Robert_Andrews_Millikan	3	(803)	1	(1804)	2	(305)	1	(1316)	1080.52	(1459)	0.00032	(898)
Léon_Foucault	1	(1694)	0	(2670)	1	(1127)	0	(2545)	0.00	(1843)	0.00015	(1643)
Juliette_Binoche	0	(2528)	4	(603)	0	(2330)	1	(1316)	0.00	(1843)	0.00005	(2543)
Peter_Ustinov	1	(1694)	2	(1229)	1	(1127)	1	(1316)	1709.80	(1368)	0.00007	(2266)
Agatha_Christie	7	(260)	7	(246)	2	(305)	2	(444)	45249.66	(146)	0.00052	(478)
Hadrianus	4	(576)	2	(1229)	2	(305)	2	(444)	2492.17	(1184)	0.00068	(341)
Dakota_Fanning	2	(1180)	6	(326)	1	(1127)	3	(39)	5215.58	(905)	0.00009	(2072)
Mike_Myers	1	(1694)	0	(2670)	1	(1127)	0	(2545)	0.00	(1843)	0.00007	(2405)
Christine_Lagarde	1	(1694)	2	(1229)	1	(1127)	2	(444)	33.30	(1744)	0.00023	(1228)
Gene_Hackman	2	(1180)	1	(1804)	2	(305)	0	(2545)	114.67	(1686)	0.00029	(978)
Jerome_Karle	1	(1694)	1	(1804)	1	(1127)	1	(1316)	0.00	(1843)	0.00052	(485)
Herbert_A._Hauptman	1	(1694)	1	(1804)	1	(1127)	1	(1316)	0.00	(1843)	0.00052	(485)
Franciscus_Assisilainen	0	(2528)	1	(1804)	0	(2330)	1	(1316)	0.00	(1843)	0.00005	(2680)
François_Fillon	3	(803)	2	(1229)	3	(39)	2	(444)	0.33	(1840)	0.00025	(1133)
Éric_Rohmer	1	(1694)	0	(2670)	1	(1127)	0	(2545)	0.00	(1843)	0.00007	(2344)
François_Truffaut	7	(260)	0	(2670)	2	(305)	0	(2545)	0.00	(1843)	0.00034	(848)
Aki_Kaurismäki	2	(1180)	7	(246)	1	(1127)	2	(444)	1712.63	(1367)	0.00008	(2199)
Aleksanteri_I	2	(1180)	3	(835)	1	(1127)	1	(1316)	7039.50	(742)	0.00017	(1527)
Dino_Zoff	1	(1694)	4	(603)	1	(1127)	1	(1316)	27610.75	(240)	0.00015	(1654)
Lev_Jašin	1	(1694)	0	(2670)	1	(1127)	0	(2545)	0.00	(1843)	0.00008	(2186)
Aung_San_Suu_Kyi	2	(1180)	0	(2670)	2	(305)	0	(2545)	0.00	(1843)	0.00024	(1186)
Jackson_Pollock	2	(1180)	1	(1804)	1	(1127)	1	(1316)	621.41	(1530)	0.00008	(2201)
Brian_Epstein	1	(1694)	1	(1804)	1	(1127)	1	(1316)	722.81	(1513)	0.00018	(1459)
Mark_David_Chapman	1	(1694)	4	(603)	1	(1127)	2	(444)	1088.61	(1455)	0.00018	(1460)
Ibn_Khaldun	0	(2528)	3	(835)	0	(2330)	1	(1316)	0.00	(1843)	0.00005	(2543)
Timur_Lenk	1	(1694)	1	(1804)	0	(2330)	1	(1316)	3.00	(1806)	0.00007	(2377)
Enrico_Fermi	4	(576)	5	(449)	1	(1127)	2	(444)	6208.18	(820)	0.00020	(1364)
Helen_Mirren	1	(1694)	2	(1229)	1	(1127)	2	(444)	19575.80	(326)	0.00023	(1227)
Natasha_Richardson	2	(1180)	2	(1229)	2	(305)	1	(1316)	2243.56	(1239)	0.00039	(742)
Timothy_Dalton	5	(441)	6	(326)	2	(305)	2	(444)	13833.96	(459)	0.00046	(615)
Aljaksandr_Lukašenka	0	(2528)	6	(326)	0	(2330)	3	(39)	0.00	(1843)	0.00005	(2531)
Heinz-Harald_Frentzen	1	(1694)	3	(835)	1	(1127)	3	(39)	61.81	(1724)	0.00009	(2112)
Harper_Lee	2	(1180)	2	(1229)	1	(1127)	2	(444)	375.07	(1581)	0.00013	(1766)
Truman_Capote	4	(576)	3	(835)	2	(305)	2	(444)	5707.07	(861)	0.00029	(983)
Henrik_III_(Ranska)	0	(2528)	1	(1804)	0	(2330)	1	(1316)	0.00	(1843)	0.00005	(2680)
Võ_Nguyên_Giáp	1	(1694)	1	(1804)	1	(1127)	1	(1316)	67.11	(1719)	0.00006	(2476)
Honorius	2	(1180)	2	(1229)	1	(1127)	1	(1316)	13210.50	(474)	0.00031	(929)
Billy_Crystal	1	(1694)	0	(2670)	1	(1127)	0	(2545)	0.00	(1843)	0.00006	(2472)
Michelle_Williams	3	(803)	1	(1804)	2	(305)	1	(1316)	793.82	(1500)	0.00013	(1726)
Anthony_Hopkins	5	(441)	10	(128)	2	(305)	3	(39)	43784.27	(152)	0.00033	(867)
Franz_Marc	0	(2528)	3	(835)	0	(2330)	1	(1316)	0.00	(1843)	0.00005	(2543)
Pier_Paolo_Pasolini	3	(803)	12	(72)	1	(1127)	2	(444)	23542.05	(277)	0.00044	(650)
Leopold_II_(Belgia)	1	(1694)	4	(603)	0	(2330)	1	(1316)	2061.00	(1282)	0.00010	(2047)
John_Everett_Millais	1	(1694)	2	(1229)	1	(1127)	1	(1316)	24.70	(1753)	0.00007	(2399)
Faruq	2	(1180)	2	(1229)	2	(305)	2	(444)	1266.53	(1426)	0.00041	(709)
Rudolf_Nurejev	1	(1694)	1	(1804)	0	(2330)	1	(1316)	1521.78	(1387)	0.00007	(2270)
Gisele_Bündchen	3	(803)	1	(1804)	1	(1127)	1	(1316)	1701.15	(1370)	0.00013	(1767)
Herakleitos	0	(2528)	11	(94)	0	(2330)	3	(39)	0.00	(1843)	0.00005	(2965)
Pyhä_Klemens_I	2	(1180)	1	(1804)	1	(1127)	1	(1316)	1.00	(1822)	0.00054	(450)
Vince_McMahon	2	(1180)	2	(1229)	1	(1127)	1	(1316)	28180.95	(235)	0.00010	(1964)
Ken_Kennedy	1	(1694)	0	(2670)	1	(1127)	0	(2545)	0.00	(1843)	0.00006	(2456)
Edmund_Husserl	7	(260)	14	(44)	2	(305)	3	(39)	48777.11	(133)	0.00035	(825)
Emmanuel_Lévinas	2	(1180)	4	(603)	2	(305)	2	(444)	1080.89	(1458)	0.00008	(2182)
Leopold_Kronecker	2	(1180)	1	(1804)	1	(1127)	0	(2545)	2354.00	(1205)	0.00010	(1979)
Karl_Weierstrass	1	(1694)	1	(1804)	1	(1127)	1	(1316)	0.00	(1843)	0.00007	(2309)
Franz_Brentano	3	(803)	1	(1804)	2	(305)	1	(1316)	1701.73	(1369)	0.00010	(1980)
Jim_Jarmusch	5	(441)	1	(1804)	2	(305)	0	(2545)	743.24	(1507)	0.00021	(1284)
Nicolas_Anelka	2	(1180)	1	(1804)	1	(1127)	1	(1316)	23247.22	(280)	0.00017	(1507)
Dennis_Bergkamp	4	(576)	4	(603)	2	(305)	2	(444)	29923.14	(219)	0.00026	(1124)
Francis_Drake	1	(1694)	1	(1804)	1	(1127)	1	(1316)	0.00	(1843)	0.00023	(1226)
Irvin_Kershner	0	(2528)	1	(1804)	0	(2330)	1	(1316)	0.00	(1843)	0.00005	(2680)
Glenn_Gould	1	(1694)	2	(1229)	0	(2330)	1	(1316)	2057.00	(1316)	0.00007	(2288)
Paul_Scofield	1	(1694)	0	(2670)	1	(1127)	0	(2545)	0.00	(1843)	0.00008	(2228)
Thomas_Wolsey	2	(1180)	3	(835)	2	(305)	1	(1316)	3482.48	(1072)	0.00009	(2088)
Moshe_Katsav	2	(1180)	6	(326)	2	(305)	3	(39)	5713.96	(859)	0.00017	(1528)
Lisa_Kudrow	1	(1694)	1	(1804)	1	(1127)	1	(1316)	964.83	(1471)	0.00007	(2305)
Yoann_Gourcuff	1	(1694)	1	(1804)	1	(1127)	1	(1316)	0.00	(1843)	0.00028	(1036)
Franck_Ribéry	2	(1180)	2	(1229)	1	(1127)	1	(1316)	4408.00	(977)	0.00051	(553)
Joseph_Dalton_Hooker	1	(1694)	1	(1804)	1	(1127)	1	(1316)	0.00	(1843)	0.00009	(2148)
Pervez_Musharraf	3	(803)	3	(835)	1	(1127)	2	(444)	8812.00	(644)	0.00053	(464)
Mohamed_ElBaradei	1	(1694)	0	(2670)	1	(1127)	0	(2545)	0.00	(1843)	0.00032	(906)
Hamid_Karzai	2	(1180)	2	(1229)	1	(1127)	2	(444)	2057.00	(1316)	0.00036	(788)
Laura_Bush	3	(803)	1	(1804)	1	(1127)	1	(1316)	0.00	(1843)	0.00035	(813)
Mahmud_Abbas	2	(1180)	2	(1229)	2	(305)	2	(444)	254.96	(1615)	0.00042	(675)
Domenico_Scarlatti	1	(1694)	2	(1229)	1	(1127)	2	(444)	325.29	(1592)	0.00008	(2237)
Perikles	0	(2528)	5	(449)	0	(2330)	2	(444)	0.00	(1843)	0.00005	(2660)
Sofokles	1	(1694)	0	(2670)	0	(2330)	0	(2545)	0.00	(1843)	0.00006	(2463)
Zenon_Elealainen	2	(1180)	4	(603)	1	(1127)	2	(444)	3141.63	(1113)	0.00010	(2002)
Thukydides	3	(803)	0	(2670)	1	(1127)	0	(2545)	0.00	(1843)	0.00021	(1302)
Anaksagoras	1	(1694)	3	(835)	0	(2330)	2	(444)	323.73	(1594)	0.00006	(2458)
Anthony_Giddens	0	(2528)	2	(1229)	0	(2330)	1	(1316)	0.00	(1843)	0.00005	(2965)
Donatello	1	(1694)	0	(2670)	1	(1127)	0	(2545)	0.00	(1843)	0.00013	(1771)
Getúlio_Vargas	0	(2528)	1	(1804)	0	(2330)	1	(1316)	0.00	(1843)	0.00005	(2680)
Aaron_Copland	1	(1694)	6	(326)	0	(2330)	3	(39)	3202.25	(1106)	0.00007	(2348)
Mihail_Kalašnikov	0	(2528)	1	(1804)	0	(2330)	1	(1316)	0.00	(1843)	0.00005	(2680)
Adam_Clayton	1	(1694)	2	(1229)	0	(2330)	1	(1316)	2059.00	(1290)	0.00010	(2009)
Larry_Mullen_Jr.	1	(1694)	0	(2670)	0	(2330)	0	(2545)	0.00	(1843)	0.00010	(2065)
Bono	3	(803)	1	(1804)	1	(1127)	1	(1316)	8370.63	(662)	0.00013	(1743)
Ian_Fleming	8	(201)	4	(603)	2	(305)	3	(39)	90850.55	(62)	0.00068	(346)
Mae_West	2	(1180)	0	(2670)	1	(1127)	0	(2545)	0.00	(1843)	0.00016	(1594)
Antonio_Gramsci	1	(1694)	0	(2670)	1	(1127)	0	(2545)	0.00	(1843)	0.00008	(2183)
Geoffrey_Chaucer	1	(1694)	0	(2670)	1	(1127)	0	(2545)	0.00	(1843)	0.00008	(2183)
Georg_Simmel	0	(2528)	5	(449)	0	(2330)	2	(444)	0.00	(1843)	0.00005	(2660)
Giacomo_Puccini	0	(2528)	14	(44)	0	(2330)	2	(444)	0.00	(1843)	0.00005	(2528)
Gabriele_D'Annunzio	2	(1180)	1	(1804)	1	(1127)	1	(1316)	13210.72	(473)	0.00026	(1095)
Pietro_Mascagni	1	(1694)	0	(2670)	0	(2330)	0	(2545)	0.00	(1843)	0.00005	(2521)
Nostradamus	1	(1694)	3	(835)	0	(2330)	2	(444)	65.71	(1720)	0.00005	(2524)
Mikaël_Silvestre	1	(1694)	0	(2670)	1	(1127)	0	(2545)	0.00	(1843)	0.00009	(2150)
Micah_Richards	1	(1694)	1	(1804)	1	(1127)	1	(1316)	136.43	(1667)	0.00009	(2150)
Giacomo_Casanova	1	(1694)	2	(1229)	1	(1127)	2	(444)	6935.89	(752)	0.00010	(1955)
Jean-Jacques_Rousseau	5	(441)	8	(193)	2	(305)	3	(39)	36749.78	(175)	0.00042	(686)
Robert_Duvall	1	(1694)	0	(2670)	1	(1127)	0	(2545)	0.00	(1843)	0.00012	(1822)
Nico_(muusikko)	0	(2528)	6	(326)	0	(2330)	2	(444)	0.00	(1843)	0.00005	(2531)
Werner_Faymann	1	(1694)	2	(1229)	1	(1127)	1	(1316)	2060.00	(1284)	0.00016	(1544)
Heinz_Fischer	2	(1180)	1	(1804)	1	(1127)	1	(1316)	4118.00	(1009)	0.00025	(1151)
Alfred_Gusenbauer	1	(1694)	1	(1804)	1	(1127)	1	(1316)	0.00	(1843)	0.00013	(1792)
Michael_Haydn	1	(1694)	3	(835)	1	(1127)	2	(444)	114.69	(1685)	0.00011	(1916)
Peter_Singer	0	(2528)	1	(1804)	0	(2330)	1	(1316)	0.00	(1843)	0.00005	(2680)
Astrid_Lindgren	0	(2528)	1	(1804)	0	(2330)	1	(1316)	0.00	(1843)	0.00005	(2680)
Neil_Armstrong	2	(1180)	1	(1804)	1	(1127)	1	(1316)	0.00	(1843)	0.00083	(242)
Buzz_Aldrin	3	(803)	1	(1804)	1	(1127)	1	(1316)	1.00	(1822)	0.00084	(241)
Charles_Glover_Barkla	0	(2528)	1	(1804)	0	(2330)	1	(1316)	0.00	(1843)	0.00005	(2680)
Brian_Clough	0	(2528)	1	(1804)	0	(2330)	1	(1316)	0.00	(1843)	0.00005	(2680)
John_Philip_Sousa	0	(2528)	1	(1804)	0	(2330)	1	(1316)	0.00	(1843)	0.00005	(2680)
Simon_Rattle	1	(1694)	3	(835)	1	(1127)	2	(444)	872.27	(1485)	0.00012	(1841)
Edvard_Munch	2	(1180)	2	(1229)	2	(305)	1	(1316)	3710.49	(1050)	0.00031	(935)
Jon_Voight	2	(1180)	1	(1804)	2	(305)	1	(1316)	197.71	(1638)	0.00012	(1835)
Fredrik_VIII	3	(803)	3	(835)	2	(305)	2	(444)	7372.03	(717)	0.00055	(442)
Philippe_Pétain	4	(576)	2	(1229)	1	(1127)	1	(1316)	4640.25	(948)	0.00036	(803)
Ferdinand_Marcos	1	(1694)	5	(449)	1	(1127)	3	(39)	4116.00	(1013)	0.00017	(1529)
Corazon_Aquino	2	(1180)	1	(1804)	1	(1127)	1	(1316)	2059.00	(1290)	0.00013	(1773)
José_Ortega_y_Gasset	0	(2528)	2	(1229)	0	(2330)	2	(444)	0.00	(1843)	0.00005	(2965)
Anna_(Englanti)	0	(2528)	2	(1229)	0	(2330)	1	(1316)	0.00	(1843)	0.00005	(2965)
John_Churchill_Marlborough	5	(441)	1	(1804)	1	(1127)	1	(1316)	20863.68	(308)	0.00048	(587)
William_Herschel	1	(1694)	1	(1804)	1	(1127)	1	(1316)	0.00	(1843)	0.00070	(329)
John_Herschel	2	(1180)	1	(1804)	1	(1127)	1	(1316)	2354.00	(1205)	0.00072	(311)
Jonny_Evans	0	(2528)	4	(603)	0	(2330)	1	(1316)	0.00	(1843)	0.00005	(2543)
Nemanja_Vidić	1	(1694)	2	(1229)	0	(2330)	1	(1316)	1.00	(1822)	0.00006	(2421)
Gerard_Piqué	1	(1694)	1	(1804)	0	(2330)	1	(1316)	1777.34	(1356)	0.00006	(2430)
Carlos_Andrés_Pérez	0	(2528)	2	(1229)	0	(2330)	2	(444)	0.00	(1843)	0.00005	(2965)
Sigismund_Luxemburgilainen	1	(1694)	1	(1804)	1	(1127)	1	(1316)	0.00	(1843)	0.00074	(295)
Michel_Houellebecq	0	(2528)	1	(1804)	0	(2330)	1	(1316)	0.00	(1843)	0.00005	(2680)
Jane_Birkin	0	(2528)	1	(1804)	0	(2330)	1	(1316)	0.00	(1843)	0.00005	(2680)
Dan_Brown	3	(803)	0	(2670)	2	(305)	0	(2545)	0.00	(1843)	0.00029	(979)
Georg_Cantor	1	(1694)	3	(835)	1	(1127)	1	(1316)	3103.70	(1116)	0.00009	(2134)
Christiaan_Huygens	3	(803)	0	(2670)	3	(39)	0	(2545)	0.00	(1843)	0.00020	(1371)
Johannes_Kepler	4	(576)	4	(603)	2	(305)	2	(444)	15574.49	(415)	0.00024	(1201)
Giovanni_Domenico_Cassini	1	(1694)	0	(2670)	1	(1127)	0	(2545)	0.00	(1843)	0.00009	(2135)
Charles_Goodyear	0	(2528)	1	(1804)	0	(2330)	1	(1316)	0.00	(1843)	0.00005	(2680)
Andrew_Jackson	10	(134)	3	(835)	3	(39)	3	(39)	18511.15	(350)	0.00208	(45)
Ryan_Babel	0	(2528)	1	(1804)	0	(2330)	0	(2545)	0.00	(1843)	0.00005	(2680)
Manne_Siegbahn	2	(1180)	3	(835)	1	(1127)	1	(1316)	12.00	(1772)	0.00011	(1902)
Ferdinand_Lassalle	0	(2528)	3	(835)	0	(2330)	2	(444)	0.00	(1843)	0.00005	(2543)
Moby	0	(2528)	4	(603)	0	(2330)	3	(39)	0.00	(1843)	0.00005	(2543)
Herman_Melville	2	(1180)	0	(2670)	0	(2330)	0	(2545)	0.00	(1843)	0.00007	(2324)
Kaarle_II_(Espanja)	0	(2528)	1	(1804)	0	(2330)	1	(1316)	0.00	(1843)	0.00005	(2680)
Elfriede_Jelinek	1	(1694)	1	(1804)	1	(1127)	1	(1316)	0.00	(1843)	0.00013	(1792)
Michael_Haneke	1	(1694)	2	(1229)	1	(1127)	1	(1316)	1.00	(1822)	0.00016	(1544)
Vincenzo_Bellini	1	(1694)	1	(1804)	1	(1127)	1	(1316)	1938.88	(1339)	0.00012	(1823)
Axl_Rose	3	(803)	2	(1229)	1	(1127)	2	(444)	1018.66	(1468)	0.00018	(1447)
Jaco_Pastorius	1	(1694)	1	(1804)	1	(1127)	1	(1316)	0.00	(1843)	0.00019	(1414)
Neil_Young	5	(441)	5	(449)	2	(305)	2	(444)	11902.29	(526)	0.00032	(888)
Corbin_Bleu	0	(2528)	1	(1804)	0	(2330)	1	(1316)	0.00	(1843)	0.00005	(2680)
Vanessa_Hudgens	3	(803)	2	(1229)	1	(1127)	1	(1316)	6792.43	(768)	0.00029	(1001)
Claude_Jade	1	(1694)	2	(1229)	0	(2330)	1	(1316)	1888.91	(1345)	0.00007	(2288)
Masashi_Kishimoto	0	(2528)	1	(1804)	0	(2330)	0	(2545)	0.00	(1843)	0.00005	(2680)
Henrik_Larsson	0	(2528)	1	(1804)	0	(2330)	0	(2545)	0.00	(1843)	0.00005	(2680)
Wentworth_Miller	0	(2528)	2	(1229)	0	(2330)	1	(1316)	0.00	(1843)	0.00005	(2965)
Thomas_Becket	1	(1694)	3	(835)	0	(2330)	1	(1316)	2055.00	(1323)	0.00007	(2368)
Marguerite_Yourcenar	1	(1694)	1	(1804)	0	(2330)	1	(1316)	551.05	(1541)	0.00006	(2463)
Brigitte_Bardot	2	(1180)	2	(1229)	1	(1127)	2	(444)	3518.79	(1069)	0.00014	(1671)
Brian_May	2	(1180)	2	(1229)	1	(1127)	2	(444)	2151.69	(1256)	0.00015	(1636)
Klemens_VIII	2	(1180)	2	(1229)	2	(305)	1	(1316)	2676.77	(1162)	0.00065	(374)
Julia_Gillard	1	(1694)	2	(1229)	1	(1127)	2	(444)	911.11	(1478)	0.00012	(1865)
Arthur_C._Clarke	2	(1180)	1	(1804)	1	(1127)	1	(1316)	7907.17	(687)	0.00025	(1140)
Diego_Velázquez	2	(1180)	4	(603)	1	(1127)	2	(444)	9972.87	(594)	0.00027	(1062)
Amedeo_Avogadro	0	(2528)	1	(1804)	0	(2330)	1	(1316)	0.00	(1843)	0.00005	(2680)
Sam_Neill	1	(1694)	0	(2670)	1	(1127)	0	(2545)	0.00	(1843)	0.00008	(2221)
Gustav_Klimt	2	(1180)	1	(1804)	1	(1127)	1	(1316)	2057.00	(1316)	0.00033	(882)
Qin_Shi_Huangdi	1	(1694)	1	(1804)	1	(1127)	1	(1316)	0.00	(1843)	0.00006	(2476)
Sergei_Koroljov	0	(2528)	1	(1804)	0	(2330)	1	(1316)	0.00	(1843)	0.00005	(2680)
Alexandre_Dumas_vanhempi	0	(2528)	5	(449)	0	(2330)	2	(444)	0.00	(1843)	0.00005	(2660)
Joseph_Smith	0	(2528)	1	(1804)	0	(2330)	1	(1316)	0.00	(1843)	0.00005	(2680)
Benjamin_Disraeli	1	(1694)	2	(1229)	1	(1127)	1	(1316)	93.93	(1700)	0.00014	(1703)
Dmitri_Šostakovitš	7	(260)	7	(246)	1	(1127)	2	(444)	19501.26	(327)	0.00046	(621)
Aram_Hatšaturjan	1	(1694)	0	(2670)	1	(1127)	0	(2545)	0.00	(1843)	0.00007	(2311)
Elisabet_(Venäjä)	0	(2528)	2	(1229)	0	(2330)	1	(1316)	0.00	(1843)	0.00005	(2965)
Jermain_Defoe	3	(803)	4	(603)	1	(1127)	1	(1316)	15570.42	(416)	0.00046	(619)
Carol_Reed	1	(1694)	1	(1804)	1	(1127)	0	(2545)	0.00	(1843)	0.00009	(2142)
William_Thomson	2	(1180)	0	(2670)	1	(1127)	0	(2545)	0.00	(1843)	0.00028	(1027)
Johannes_Diderik_van_der_Waals	1	(1694)	1	(1804)	1	(1127)	1	(1316)	0.00	(1843)	0.00008	(2226)
Claude_Auchinleck	1	(1694)	2	(1229)	1	(1127)	2	(444)	0.00	(1843)	0.00012	(1845)
Fernando_Sor	0	(2528)	1	(1804)	0	(2330)	1	(1316)	0.00	(1843)	0.00005	(2680)
Zac_Efron	1	(1694)	1	(1804)	1	(1127)	1	(1316)	0.00	(1843)	0.00018	(1442)
Robbie_Williams	2	(1180)	3	(835)	1	(1127)	1	(1316)	6948.73	(749)	0.00019	(1382)
Kristian_II	1	(1694)	1	(1804)	1	(1127)	1	(1316)	0.00	(1843)	0.00052	(485)
Kustaa_Vaasa	1	(1694)	1	(1804)	1	(1127)	1	(1316)	0.00	(1843)	0.00052	(485)
L._L._Zamenhof	0	(2528)	1	(1804)	0	(2330)	1	(1316)	0.00	(1843)	0.00005	(2680)
Ernst_Cassirer	1	(1694)	1	(1804)	1	(1127)	1	(1316)	0.00	(1843)	0.00006	(2449)
Alain_Robbe-Grillet	0	(2528)	2	(1229)	0	(2330)	2	(444)	0.00	(1843)	0.00005	(2965)
Jean-Pierre_Raffarin	4	(576)	6	(326)	3	(39)	3	(39)	154.49	(1655)	0.00034	(841)
Pierre_Messmer	1	(1694)	3	(835)	1	(1127)	2	(444)	0.00	(1843)	0.00013	(1742)
Dominique_de_Villepin	6	(331)	6	(326)	3	(39)	3	(39)	7910.90	(686)	0.00060	(405)
Jacques_Hébert	0	(2528)	3	(835)	0	(2330)	2	(444)	0.00	(1843)	0.00005	(2543)
Georges_Danton	3	(803)	0	(2670)	1	(1127)	0	(2545)	0.00	(1843)	0.00020	(1344)
Gregorius_XVI	2	(1180)	3	(835)	2	(305)	2	(444)	3351.65	(1090)	0.00026	(1090)
Leo_XII	3	(803)	2	(1229)	2	(305)	1	(1316)	1260.90	(1427)	0.00034	(837)
Hildegard_Bingeniläinen	0	(2528)	3	(835)	0	(2330)	2	(444)	0.00	(1843)	0.00005	(2543)
Leo_von_Caprivi	1	(1694)	1	(1804)	1	(1127)	1	(1316)	0.00	(1843)	0.00101	(183)
Éric_Cantona	3	(803)	2	(1229)	1	(1127)	1	(1316)	20074.26	(322)	0.00021	(1313)
Wayne_Rooney	6	(331)	5	(449)	1	(1127)	2	(444)	30051.55	(218)	0.00022	(1262)
Gareth_Bale	1	(1694)	1	(1804)	1	(1127)	1	(1316)	12270.17	(506)	0.00008	(2260)
Eamon_de_Valera	1	(1694)	0	(2670)	1	(1127)	0	(2545)	0.00	(1843)	0.00006	(2473)
Dave_Grohl	3	(803)	2	(1229)	1	(1127)	1	(1316)	34408.04	(187)	0.00030	(963)
Henrik_I_(Portugali)	0	(2528)	1	(1804)	0	(2330)	1	(1316)	0.00	(1843)	0.00005	(2680)
Hans_Kelsen	0	(2528)	2	(1229)	0	(2330)	1	(1316)	0.00	(1843)	0.00005	(2965)
Abdullahi_Yusuf_Ahmed	0	(2528)	1	(1804)	0	(2330)	1	(1316)	0.00	(1843)	0.00005	(2680)
Emily_Osment	1	(1694)	1	(1804)	1	(1127)	1	(1316)	0.00	(1843)	0.00008	(2233)
Tarja_Halonen	3	(803)	5	(449)	2	(305)	3	(39)	23980.52	(270)	0.00029	(981)
Megan_Fox	1	(1694)	6	(326)	1	(1127)	3	(39)	2709.25	(1159)	0.00006	(2415)
Mary-Kate_ja_Ashley_Olsen	1	(1694)	4	(603)	1	(1127)	2	(444)	491.15	(1556)	0.00006	(2457)
Shia_LaBeouf	2	(1180)	0	(2670)	1	(1127)	0	(2545)	0.00	(1843)	0.00042	(689)
Albert_Lebrun	0	(2528)	2	(1229)	0	(2330)	1	(1316)	0.00	(1843)	0.00005	(2965)
Vasili_Šuiski	1	(1694)	2	(1229)	1	(1127)	1	(1316)	2012.85	(1330)	0.00009	(2090)
Vladislav_IV_Vaasa	1	(1694)	2	(1229)	1	(1127)	1	(1316)	3.00	(1806)	0.00009	(2090)
Claude_Lévi-Strauss	2	(1180)	3	(835)	1	(1127)	2	(444)	10220.03	(581)	0.00010	(2070)
Akbar_Hašemi_Rafsandžani	1	(1694)	4	(603)	1	(1127)	2	(444)	11.65	(1776)	0.00010	(1967)
Czesław_Miłosz	0	(2528)	1	(1804)	0	(2330)	0	(2545)	0.00	(1843)	0.00005	(2680)
Adam_Mickiewicz	1	(1694)	1	(1804)	0	(2330)	0	(2545)	2.00	(1814)	0.00010	(2015)
Nicéphore_Niépce	0	(2528)	1	(1804)	0	(2330)	0	(2545)	0.00	(1843)	0.00005	(2680)
Louis_Daguerre	1	(1694)	0	(2670)	0	(2330)	0	(2545)	0.00	(1843)	0.00010	(2015)
Antoni_Gaudí	1	(1694)	0	(2670)	1	(1127)	0	(2545)	0.00	(1843)	0.00007	(2350)
Benjamin_Roy_Mottelson	1	(1694)	1	(1804)	1	(1127)	1	(1316)	0.00	(1843)	0.00016	(1556)
The_Edge_(muusikko)	0	(2528)	1	(1804)	0	(2330)	1	(1316)	0.00	(1843)	0.00005	(2680)
Michael_Giacchino	0	(2528)	1	(1804)	0	(2330)	0	(2545)	0.00	(1843)	0.00005	(2680)
J._J._Abrams	3	(803)	0	(2670)	0	(2330)	0	(2545)	0.00	(1843)	0.00019	(1400)
George_Gershwin	0	(2528)	2	(1229)	0	(2330)	1	(1316)	0.00	(1843)	0.00005	(2965)
Fred_Astaire	7	(260)	3	(835)	2	(305)	1	(1316)	15297.92	(423)	0.00098	(190)
Margaret_Mead	0	(2528)	1	(1804)	0	(2330)	0	(2545)	0.00	(1843)	0.00005	(2680)
Franz_Boas	1	(1694)	0	(2670)	0	(2330)	0	(2545)	0.00	(1843)	0.00010	(2015)
Demokritos	1	(1694)	1	(1804)	0	(2330)	1	(1316)	0.00	(1843)	0.00007	(2341)
George_Cukor	3	(803)	7	(246)	2	(305)	3	(39)	8066.30	(676)	0.00014	(1709)
José_Antonio_Primo_de_Rivera	1	(1694)	1	(1804)	1	(1127)	1	(1316)	1848.90	(1348)	0.00026	(1098)
Lorenzo_Valla	0	(2528)	2	(1229)	0	(2330)	2	(444)	0.00	(1843)	0.00005	(2965)
Thomas_Klestil	1	(1694)	2	(1229)	1	(1127)	1	(1316)	6174.00	(826)	0.00028	(1046)
Kurt_Waldheim	3	(803)	5	(449)	2	(305)	3	(39)	12842.67	(486)	0.00032	(896)
Nawaz_Sharif	2	(1180)	2	(1229)	1	(1127)	2	(444)	2352.00	(1225)	0.00029	(977)
Benazir_Bhutto	1	(1694)	2	(1229)	1	(1127)	2	(444)	0.00	(1843)	0.00018	(1430)
John_Hume	1	(1694)	0	(2670)	1	(1127)	0	(2545)	0.00	(1843)	0.00009	(2123)
Justin_Gatlin	0	(2528)	1	(1804)	0	(2330)	1	(1316)	0.00	(1843)	0.00005	(2680)
Giulio_Andreotti	2	(1180)	0	(2670)	1	(1127)	0	(2545)	0.00	(1843)	0.00021	(1315)
Denis_Law	2	(1180)	3	(835)	2	(305)	1	(1316)	1172.17	(1441)	0.00019	(1411)
Chris_Evert	2	(1180)	3	(835)	2	(305)	2	(444)	32888.60	(199)	0.00040	(726)
Steffi_Graf	4	(576)	3	(835)	3	(39)	2	(444)	17421.87	(369)	0.00055	(438)
Joshua_Lederberg	0	(2528)	1	(1804)	0	(2330)	1	(1316)	0.00	(1843)	0.00005	(2680)
Carl_Sagan	2	(1180)	4	(603)	1	(1127)	2	(444)	10521.45	(567)	0.00015	(1619)
Vladimir_Horowitz	1	(1694)	3	(835)	1	(1127)	2	(444)	3306.39	(1094)	0.00009	(2161)
William_Wallace	4	(576)	2	(1229)	2	(305)	2	(444)	6427.30	(801)	0.00040	(725)
Marc_Chagall	1	(1694)	4	(603)	1	(1127)	2	(444)	1129.56	(1446)	0.00011	(1933)
Kazimir_Malevitš	2	(1180)	1	(1804)	1	(1127)	1	(1316)	397.64	(1576)	0.00017	(1513)
Jared_Leto	4	(576)	0	(2670)	2	(305)	0	(2545)	0.00	(1843)	0.00018	(1469)
August_Bebel	1	(1694)	0	(2670)	1	(1127)	0	(2545)	0.00	(1843)	0.00010	(2006)
Sidney_Lumet	3	(803)	7	(246)	2	(305)	2	(444)	33031.80	(197)	0.00084	(239)
Al_Pacino	4	(576)	23	(11)	2	(305)	2	(444)	65883.42	(102)	0.00028	(1012)
Ice_Cube	1	(1694)	2	(1229)	1	(1127)	2	(444)	0.00	(1843)	0.00012	(1867)
Tupac_Shakur	2	(1180)	12	(72)	1	(1127)	3	(39)	25140.45	(257)	0.00017	(1526)
Claudio_Monteverdi	1	(1694)	1	(1804)	1	(1127)	1	(1316)	173.96	(1643)	0.00007	(2320)
Santiago_Ramón_y_Cajal	1	(1694)	1	(1804)	1	(1127)	1	(1316)	0.00	(1843)	0.00052	(485)
Camillo_Golgi	1	(1694)	1	(1804)	1	(1127)	1	(1316)	0.00	(1843)	0.00052	(485)
Hayao_Miyazaki	2	(1180)	0	(2670)	1	(1127)	0	(2545)	0.00	(1843)	0.00012	(1834)
Robert_Zemeckis	3	(803)	3	(835)	2	(305)	1	(1316)	8122.55	(673)	0.00034	(857)
Terry_Pratchett	2	(1180)	2	(1229)	2	(305)	1	(1316)	6709.11	(779)	0.00012	(1861)
Charles_Perrault	0	(2528)	2	(1229)	0	(2330)	2	(444)	0.00	(1843)	0.00005	(2965)
Damien_Hirst	1	(1694)	0	(2670)	1	(1127)	0	(2545)	0.00	(1843)	0.00007	(2409)
Hank_Williams	2	(1180)	0	(2670)	1	(1127)	0	(2545)	0.00	(1843)	0.00012	(1817)
Bjørnstjerne_Bjørnson	0	(2528)	1	(1804)	0	(2330)	0	(2545)	0.00	(1843)	0.00005	(2680)
Frederick_Reines	0	(2528)	3	(835)	0	(2330)	1	(1316)	0.00	(1843)	0.00005	(2543)
Martin_Lewis_Perl	1	(1694)	0	(2670)	0	(2330)	0	(2545)	0.00	(1843)	0.00007	(2377)
Yukio_Hatoyama	2	(1180)	2	(1229)	1	(1127)	1	(1316)	2061.00	(1280)	0.00031	(933)
Naoto_Kan	1	(1694)	2	(1229)	1	(1127)	1	(1316)	4118.00	(1009)	0.00019	(1396)
Tarō_Asō	1	(1694)	1	(1804)	1	(1127)	1	(1316)	0.00	(1843)	0.00019	(1397)
Eric_Hobsbawm	1	(1694)	0	(2670)	1	(1127)	0	(2545)	0.00	(1843)	0.00025	(1166)
Shahar_Pe'er	4	(576)	0	(2670)	3	(39)	0	(2545)	0.00	(1843)	0.00015	(1653)
Natalie_Wood	1	(1694)	2	(1229)	1	(1127)	2	(444)	1074.04	(1460)	0.00030	(974)
Anacletus	1	(1694)	1	(1804)	1	(1127)	1	(1316)	0.00	(1843)	0.00054	(453)
Konrad_III	1	(1694)	1	(1804)	1	(1127)	1	(1316)	0.00	(1843)	0.00020	(1335)
Anna_Nicole_Smith	1	(1694)	1	(1804)	0	(2330)	1	(1316)	165.30	(1645)	0.00005	(2521)
Charles_Bukowski	0	(2528)	4	(603)	0	(2330)	1	(1316)	0.00	(1843)	0.00005	(2543)
Faye_Dunaway	4	(576)	0	(2670)	2	(305)	0	(2545)	0.00	(1843)	0.00009	(2160)
Alexi_Laiho	0	(2528)	5	(449)	0	(2330)	2	(444)	0.00	(1843)	0.00005	(2660)
Tomasz_Kuszczak	0	(2528)	3	(835)	0	(2330)	1	(1316)	0.00	(1843)	0.00005	(2543)
Edwin_van_der_Sar	1	(1694)	2	(1229)	0	(2330)	1	(1316)	2055.00	(1323)	0.00007	(2371)
Artur_Boruc	1	(1694)	0	(2670)	0	(2330)	0	(2545)	0.00	(1843)	0.00007	(2377)
Vilhelm_II_(Saksa)	1	(1694)	1	(1804)	1	(1127)	1	(1316)	911.66	(1477)	0.00039	(731)
Samuel_L._Jackson	2	(1180)	2	(1229)	2	(305)	2	(444)	5732.37	(857)	0.00010	(1973)
Sali_Berisha	1	(1694)	0	(2670)	1	(1127)	0	(2545)	0.00	(1843)	0.00009	(2165)
Suleiman_Suuri	1	(1694)	0	(2670)	1	(1127)	0	(2545)	0.00	(1843)	0.00041	(699)
Gene_Kelly	3	(803)	2	(1229)	2	(305)	1	(1316)	1060.74	(1464)	0.00027	(1079)
Alan_Rickman	2	(1180)	2	(1229)	2	(305)	1	(1316)	1394.68	(1405)	0.00016	(1552)
Michael_Caine	1	(1694)	0	(2670)	1	(1127)	0	(2545)	0.00	(1843)	0.00010	(1955)
Naomi_Watts	1	(1694)	4	(603)	1	(1127)	2	(444)	419.21	(1570)	0.00010	(1954)
Julio_Cortázar	0	(2528)	5	(449)	0	(2330)	1	(1316)	0.00	(1843)	0.00005	(2660)
Carlos_Slim_Helú	0	(2528)	1	(1804)	0	(2330)	1	(1316)	0.00	(1843)	0.00005	(2680)
Ludwig_Mies_van_der_Rohe	1	(1694)	3	(835)	1	(1127)	1	(1316)	9.00	(1781)	0.00017	(1508)
Frank_Lloyd_Wright	1	(1694)	0	(2670)	1	(1127)	0	(2545)	0.00	(1843)	0.00010	(1965)
Le_Corbusier	3	(803)	1	(1804)	1	(1127)	1	(1316)	8.00	(1784)	0.00013	(1727)
Karl_Friedrich_Schinkel	1	(1694)	1	(1804)	1	(1127)	0	(2545)	4.00	(1800)	0.00010	(1965)
Linus_Pauling	1	(1694)	7	(246)	1	(1127)	2	(444)	4138.00	(1004)	0.00009	(2122)
Otto_Hahn	1	(1694)	1	(1804)	1	(1127)	1	(1316)	0.00	(1843)	0.00007	(2355)
Lise_Meitner	1	(1694)	6	(326)	1	(1127)	2	(444)	2078.00	(1268)	0.00011	(1893)
Amy_Lee	0	(2528)	2	(1229)	0	(2330)	2	(444)	0.00	(1843)	0.00005	(2965)
Kaarle_II_(Romania)	0	(2528)	2	(1229)	0	(2330)	1	(1316)	0.00	(1843)	0.00005	(2965)
Konstantin_I_(Kreikka)	4	(576)	0	(2670)	1	(1127)	0	(2545)	0.00	(1843)	0.00015	(1603)
Jane_Addams	0	(2528)	2	(1229)	0	(2330)	2	(444)	0.00	(1843)	0.00005	(2965)
Nicholas_Butler	1	(1694)	2	(1229)	0	(2330)	2	(444)	966.18	(1470)	0.00007	(2288)
George_Herbert_Mead	1	(1694)	3	(835)	0	(2330)	2	(444)	1091.82	(1453)	0.00007	(2293)
Herodes_Antipas	1	(1694)	3	(835)	1	(1127)	2	(444)	6783.53	(769)	0.00062	(392)
Roberto_Benigni	0	(2528)	1	(1804)	0	(2330)	0	(2545)	0.00	(1843)	0.00005	(2680)
W._H._Auden	2	(1180)	3	(835)	2	(305)	1	(1316)	17352.61	(371)	0.00014	(1673)
Benjamin_Britten	2	(1180)	0	(2670)	1	(1127)	0	(2545)	0.00	(1843)	0.00012	(1851)
Hans_Werner_Henze	1	(1694)	4	(603)	1	(1127)	2	(444)	11087.29	(549)	0.00009	(2078)
James_Knox_Polk	4	(576)	4	(603)	2	(305)	3	(39)	2736.51	(1155)	0.00055	(443)
Will.i.am	0	(2528)	2	(1229)	0	(2330)	1	(1316)	0.00	(1843)	0.00005	(2965)
Béla_Bartók	2	(1180)	6	(326)	1	(1127)	3	(39)	1370.85	(1410)	0.00008	(2218)
Catherine,_Cambridgen_herttuatar	1	(1694)	1	(1804)	1	(1127)	1	(1316)	0.00	(1843)	0.00009	(2084)
Henry_Kissinger	7	(260)	5	(449)	3	(39)	3	(39)	21178.87	(304)	0.00093	(211)
Anthony_Quinn	2	(1180)	2	(1229)	2	(305)	2	(444)	3294.45	(1096)	0.00013	(1752)
Juanes	1	(1694)	3	(835)	1	(1127)	2	(444)	1206.15	(1435)	0.00015	(1614)
Val_Kilmer	2	(1180)	1	(1804)	1	(1127)	1	(1316)	8820.26	(642)	0.00019	(1395)
Elias_Lönnrot	1	(1694)	1	(1804)	0	(2330)	1	(1316)	4116.00	(1017)	0.00014	(1692)
Giordano_Bruno	2	(1180)	6	(326)	2	(305)	3	(39)	15074.83	(426)	0.00012	(1843)
Maximinus_Thrax	1	(1694)	2	(1229)	1	(1127)	1	(1316)	0.00	(1843)	0.00013	(1748)
Michael_Carrick	1	(1694)	2	(1229)	1	(1127)	1	(1316)	296.46	(1604)	0.00007	(2353)
Roald_Amundsen	1	(1694)	4	(603)	1	(1127)	1	(1316)	2143.52	(1258)	0.00015	(1629)
Amerigo_Vespucci	0	(2528)	1	(1804)	0	(2330)	1	(1316)	0.00	(1843)	0.00005	(2680)
Kristoffer_Kolumbus	2	(1180)	2	(1229)	0	(2330)	1	(1316)	8.00	(1784)	0.00014	(1665)
Marcel_Duchamp	2	(1180)	3	(835)	1	(1127)	1	(1316)	1352.83	(1412)	0.00011	(1871)
Stephen_Colbert	0	(2528)	2	(1229)	0	(2330)	1	(1316)	0.00	(1843)	0.00005	(2965)
Aleksandr_Popov_(uimari)	0	(2528)	1	(1804)	0	(2330)	0	(2545)	0.00	(1843)	0.00005	(2680)
Ian_Thorpe	1	(1694)	0	(2670)	0	(2330)	0	(2545)	0.00	(1843)	0.00010	(2015)
Douglas_MacArthur	4	(576)	1	(1804)	2	(305)	1	(1316)	4316.12	(990)	0.00108	(153)
Aaron	1	(1694)	0	(2670)	1	(1127)	0	(2545)	0.00	(1843)	0.00019	(1418)
Ramses_II	1	(1694)	0	(2670)	1	(1127)	0	(2545)	0.00	(1843)	0.00019	(1418)
Mike_Dirnt	1	(1694)	1	(1804)	1	(1127)	1	(1316)	0.00	(1843)	0.00019	(1380)
Charles_Maurice_de_Talleyrand	3	(803)	7	(246)	1	(1127)	2	(444)	8428.89	(659)	0.00033	(863)
Armando_Guebuza	1	(1694)	2	(1229)	1	(1127)	2	(444)	0.00	(1843)	0.00015	(1635)
Samora_Machel	2	(1180)	2	(1229)	1	(1127)	2	(444)	4116.00	(1013)	0.00022	(1279)
Joaquim_Chissano	2	(1180)	2	(1229)	1	(1127)	2	(444)	1.00	(1822)	0.00022	(1279)
Fredrik_II_(keisari)	0	(2528)	6	(326)	0	(2330)	2	(444)	0.00	(1843)	0.00005	(2531)
Ludvig_IX_(Ranska)	1	(1694)	1	(1804)	0	(2330)	1	(1316)	21.51	(1757)	0.00006	(2485)
Isaiah_Berlin	1	(1694)	0	(2670)	1	(1127)	0	(2545)	0.00	(1843)	0.00010	(1998)
Mary_(Yhdistyneen_kuningaskunnan_kuningatar)	1	(1694)	5	(449)	1	(1127)	2	(444)	801.56	(1497)	0.00009	(2131)
Herman_Van_Rompuy	1	(1694)	1	(1804)	1	(1127)	1	(1316)	0.00	(1843)	0.00015	(1616)
Erich_Maria_Remarque	0	(2528)	6	(326)	0	(2330)	2	(444)	0.00	(1843)	0.00005	(2531)
Ray_Bradbury	0	(2528)	3	(835)	0	(2330)	2	(444)	0.00	(1843)	0.00005	(2543)
Aldous_Huxley	1	(1694)	1	(1804)	0	(2330)	1	(1316)	31.83	(1745)	0.00007	(2377)
Erhard_Milch	0	(2528)	6	(326)	0	(2330)	3	(39)	0.00	(1843)	0.00005	(2531)
Werner_Mölders	1	(1694)	0	(2670)	0	(2330)	0	(2545)	0.00	(1843)	0.00006	(2485)
Matthew_Broderick	2	(1180)	1	(1804)	1	(1127)	1	(1316)	511.26	(1551)	0.00009	(2141)
Brooke_Shields	1	(1694)	1	(1804)	1	(1127)	1	(1316)	0.00	(1843)	0.00024	(1184)
Edvard_Beneš	1	(1694)	3	(835)	1	(1127)	2	(444)	535.22	(1545)	0.00007	(2361)
Tomáš_Masaryk	1	(1694)	4	(603)	1	(1127)	2	(444)	309.41	(1598)	0.00007	(2326)
Kristian_IV	3	(803)	1	(1804)	1	(1127)	0	(2545)	11.79	(1773)	0.00012	(1805)
Craig_Bellamy	1	(1694)	1	(1804)	1	(1127)	1	(1316)	4114.00	(1020)	0.00009	(2114)
Nastassja_Kinski	0	(2528)	3	(835)	0	(2330)	1	(1316)	0.00	(1843)	0.00005	(2543)
Ibrahim_Rugova	0	(2528)	1	(1804)	0	(2330)	1	(1316)	0.00	(1843)	0.00005	(2680)
Millard_Fillmore	2	(1180)	3	(835)	2	(305)	2	(444)	799.17	(1499)	0.00033	(865)
Roland_Barthes	1	(1694)	3	(835)	1	(1127)	2	(444)	691.12	(1519)	0.00008	(2209)
Kim_Dae-jung	0	(2528)	1	(1804)	0	(2330)	1	(1316)	0.00	(1843)	0.00005	(2680)
Marshall_McLuhan	0	(2528)	2	(1229)	0	(2330)	1	(1316)	0.00	(1843)	0.00005	(2965)
Jeanne_Calment	0	(2528)	1	(1804)	0	(2330)	1	(1316)	0.00	(1843)	0.00005	(2680)
Kim_Campbell	0	(2528)	1	(1804)	0	(2330)	0	(2545)	0.00	(1843)	0.00005	(2680)
John_Coltrane	2	(1180)	8	(193)	2	(305)	2	(444)	15020.27	(430)	0.00014	(1682)
James_Stewart	6	(331)	5	(449)	2	(305)	3	(39)	9263.39	(623)	0.00038	(752)
Marouane_Chamakh	0	(2528)	3	(835)	0	(2330)	1	(1316)	0.00	(1843)	0.00005	(2543)
Nicklas_Bendtner	2	(1180)	0	(2670)	0	(2330)	0	(2545)	0.00	(1843)	0.00009	(2138)
Irène_Joliot-Curie	3	(803)	1	(1804)	1	(1127)	1	(1316)	24.40	(1754)	0.00022	(1274)
Frédéric_Joliot-Curie	3	(803)	2	(1229)	1	(1127)	1	(1316)	2137.90	(1262)	0.00028	(1032)
Li_Xiannian	0	(2528)	1	(1804)	0	(2330)	1	(1316)	0.00	(1843)	0.00005	(2680)
Slash_(kitaristi)	0	(2528)	14	(44)	0	(2330)	3	(39)	0.00	(1843)	0.00005	(2528)
Duff_McKagan	1	(1694)	2	(1229)	0	(2330)	2	(444)	75.82	(1715)	0.00005	(2524)
Simão	0	(2528)	2	(1229)	0	(2330)	1	(1316)	0.00	(1843)	0.00005	(2965)
Marilyn_Manson_(muusikko)	0	(2528)	6	(326)	0	(2330)	2	(444)	0.00	(1843)	0.00005	(2531)
Dita_Von_Teese	1	(1694)	2	(1229)	0	(2330)	1	(1316)	5.33	(1791)	0.00006	(2482)
Tilda_Swinton	1	(1694)	0	(2670)	0	(2330)	0	(2545)	0.00	(1843)	0.00006	(2485)
George_Meade	0	(2528)	4	(603)	0	(2330)	2	(444)	0.00	(1843)	0.00005	(2543)
Stonewall_Jackson	3	(803)	1	(1804)	0	(2330)	1	(1316)	0.00	(1843)	0.00009	(2171)
Joseph_Hooker	1	(1694)	5	(449)	0	(2330)	2	(444)	11.75	(1774)	0.00006	(2426)
Lawrence_Alma-Tadema	2	(1180)	3	(835)	2	(305)	1	(1316)	17544.12	(366)	0.00020	(1367)
Kardinaali_Mazarin	1	(1694)	2	(1229)	1	(1127)	1	(1316)	2350.00	(1228)	0.00023	(1224)
Jean-Baptiste_Colbert	1	(1694)	0	(2670)	1	(1127)	0	(2545)	0.00	(1843)	0.00023	(1225)
Edvard_Tunnustaja	5	(441)	4	(603)	2	(305)	2	(444)	11799.50	(529)	0.00155	(79)
Michelle_Bachelet	3	(803)	3	(835)	2	(305)	2	(444)	2386.65	(1199)	0.00017	(1487)
Berti_Vogts	1	(1694)	2	(1229)	1	(1127)	2	(444)	1275.33	(1425)	0.00016	(1578)
Gabriel_Heinze	1	(1694)	1	(1804)	0	(2330)	1	(1316)	2059.00	(1290)	0.00010	(2015)
Patrice_Evra	1	(1694)	2	(1229)	0	(2330)	1	(1316)	4116.00	(1013)	0.00014	(1693)
Rita_Hayworth	2	(1180)	3	(835)	1	(1127)	1	(1316)	3169.38	(1110)	0.00037	(771)
Jerzy_Buzek	2	(1180)	0	(2670)	1	(1127)	0	(2545)	0.00	(1843)	0.00009	(2125)
Hans-Georg_Gadamer	1	(1694)	3	(835)	1	(1127)	2	(444)	88.94	(1707)	0.00006	(2449)
Wilhelm_Dilthey	1	(1694)	0	(2670)	1	(1127)	0	(2545)	0.00	(1843)	0.00006	(2449)
Jane_Fonda	4	(576)	8	(193)	2	(305)	2	(444)	20701.95	(311)	0.00033	(868)
Zodiac_Killer	0	(2528)	3	(835)	0	(2330)	2	(444)	0.00	(1843)	0.00005	(2543)
Abbas_Kiarostami	2	(1180)	0	(2670)	1	(1127)	0	(2545)	0.00	(1843)	0.00007	(2268)
Enver_Hoxha	0	(2528)	1	(1804)	0	(2330)	1	(1316)	0.00	(1843)	0.00005	(2680)
Kaarle_I_(Englanti)	0	(2528)	7	(246)	0	(2330)	2	(444)	0.00	(1843)	0.00005	(3087)
Samuel_Pepys	1	(1694)	0	(2670)	0	(2330)	0	(2545)	0.00	(1843)	0.00006	(2504)
Íngrid_Betancourt	3	(803)	0	(2670)	2	(305)	0	(2545)	0.00	(1843)	0.00024	(1183)
Kaarle_Kaljupää	1	(1694)	1	(1804)	1	(1127)	1	(1316)	0.00	(1843)	0.00019	(1378)
Lucian_Freud	1	(1694)	1	(1804)	1	(1127)	1	(1316)	1464.12	(1395)	0.00010	(2056)
Twiggy	1	(1694)	1	(1804)	1	(1127)	0	(2545)	739.72	(1510)	0.00010	(2056)
Luis_Javier_García_Sanz	0	(2528)	1	(1804)	0	(2330)	1	(1316)	0.00	(1843)	0.00005	(2680)
Dan_Quayle	3	(803)	7	(246)	2	(305)	3	(39)	5807.54	(847)	0.00060	(408)
Mika_(laulaja)	0	(2528)	4	(603)	0	(2330)	3	(39)	0.00	(1843)	0.00005	(2543)
Ralph_Vaughan_Williams	1	(1694)	3	(835)	0	(2330)	2	(444)	309.38	(1599)	0.00006	(2421)
Robert_Capa	1	(1694)	2	(1229)	1	(1127)	2	(444)	0.00	(1843)	0.00014	(1700)
Wilhelm_Keitel	3	(803)	2	(1229)	1	(1127)	1	(1316)	2188.15	(1249)	0.00046	(622)
Ernesto_Sabato	0	(2528)	3	(835)	0	(2330)	2	(444)	0.00	(1843)	0.00005	(2543)
Raúl_Alfonsín	1	(1694)	0	(2670)	0	(2330)	0	(2545)	0.00	(1843)	0.00007	(2377)
Boris_Tadić	1	(1694)	2	(1229)	1	(1127)	2	(444)	4075.39	(1024)	0.00010	(2053)
Zoran_Đinđić	1	(1694)	2	(1229)	1	(1127)	2	(444)	85.51	(1708)	0.00010	(2069)
Jerome_Isaac_Friedman	1	(1694)	3	(835)	1	(1127)	2	(444)	2060.00	(1284)	0.00013	(1727)
Henry_Way_Kendall	1	(1694)	1	(1804)	1	(1127)	1	(1316)	0.00	(1843)	0.00009	(2114)
Filippos_II	4	(576)	3	(835)	2	(305)	1	(1316)	12243.99	(508)	0.00037	(779)
Demosthenes	3	(803)	0	(2670)	2	(305)	0	(2545)	0.00	(1843)	0.00029	(1010)
Benito_Juárez	5	(441)	3	(835)	2	(305)	2	(444)	13543.51	(467)	0.00055	(444)
Hirohito	1	(1694)	2	(1229)	1	(1127)	1	(1316)	2704.96	(1160)	0.00026	(1114)
Otto_Skorzeny	1	(1694)	6	(326)	1	(1127)	3	(39)	6499.80	(794)	0.00026	(1115)
Henri_de_Toulouse-Lautrec	2	(1180)	0	(2670)	1	(1127)	0	(2545)	0.00	(1843)	0.00028	(1019)
El_Greco	3	(803)	2	(1229)	2	(305)	1	(1316)	4793.24	(935)	0.00057	(425)
Lukas_Moodysson	0	(2528)	1	(1804)	0	(2330)	1	(1316)	0.00	(1843)	0.00005	(2680)
Alfred_J._Ayer	0	(2528)	5	(449)	0	(2330)	2	(444)	0.00	(1843)	0.00005	(2660)
David_Strathairn	0	(2528)	1	(1804)	0	(2330)	1	(1316)	0.00	(1843)	0.00005	(2680)
Harold_Pinter	3	(803)	4	(603)	1	(1127)	1	(1316)	13216.87	(472)	0.00016	(1542)
Antonio_Meucci	1	(1694)	1	(1804)	1	(1127)	1	(1316)	0.00	(1843)	0.00010	(1978)
Odetta	0	(2528)	3	(835)	0	(2330)	2	(444)	0.00	(1843)	0.00005	(2543)
Leighton_Meester	0	(2528)	1	(1804)	0	(2330)	1	(1316)	0.00	(1843)	0.00005	(2680)
Gloria_Stuart	1	(1694)	0	(2670)	1	(1127)	0	(2545)	0.00	(1843)	0.00007	(2406)
Constantin_Brâncuși	0	(2528)	7	(246)	0	(2330)	2	(444)	0.00	(1843)	0.00005	(3087)
Fahd	1	(1694)	1	(1804)	1	(1127)	1	(1316)	0.00	(1843)	0.00073	(307)
François_Boucher	0	(2528)	3	(835)	0	(2330)	2	(444)	0.00	(1843)	0.00005	(2543)
Antoine_Watteau	1	(1694)	2	(1229)	0	(2330)	1	(1316)	100.33	(1697)	0.00007	(2371)
Maximilian_von_Baden	2	(1180)	2	(1229)	2	(305)	2	(444)	152.36	(1657)	0.00039	(741)
Friedrich_Ebert	4	(576)	3	(835)	2	(305)	2	(444)	2430.84	(1192)	0.00077	(285)
John_Steinbeck	1	(1694)	2	(1229)	1	(1127)	2	(444)	2761.38	(1149)	0.00015	(1632)
Yves_Montand	3	(803)	2	(1229)	2	(305)	2	(444)	17422.67	(368)	0.00028	(1041)
Jesse_James	2	(1180)	0	(2670)	2	(305)	0	(2545)	0.00	(1843)	0.00018	(1466)
Shaka_Zulu	0	(2528)	1	(1804)	0	(2330)	1	(1316)	0.00	(1843)	0.00005	(2680)
Miguel_de_Cervantes	0	(2528)	3	(835)	0	(2330)	1	(1316)	0.00	(1843)	0.00005	(2543)
Honoré_Daumier	2	(1180)	0	(2670)	0	(2330)	0	(2545)	0.00	(1843)	0.00007	(2288)
Gustave_Doré	3	(803)	3	(835)	1	(1127)	1	(1316)	7250.42	(723)	0.00030	(966)
Viktoria_(Iso-Britannia)	0	(2528)	3	(835)	0	(2330)	2	(444)	0.00	(1843)	0.00005	(2543)
Zachary_Taylor	4	(576)	4	(603)	2	(305)	2	(444)	1277.07	(1422)	0.00045	(639)
Jalal_Talabani	2	(1180)	1	(1804)	1	(1127)	1	(1316)	0.00	(1843)	0.00014	(1710)
Omar_Hasan_Ahmad_al-Bashir	0	(2528)	1	(1804)	0	(2330)	1	(1316)	0.00	(1843)	0.00005	(2680)
Kate_Bosworth	1	(1694)	0	(2670)	1	(1127)	0	(2545)	0.00	(1843)	0.00014	(1674)
Matthew_Fox	0	(2528)	1	(1804)	0	(2330)	0	(2545)	0.00	(1843)	0.00005	(2680)
Lassana_Diarra	0	(2528)	2	(1229)	0	(2330)	1	(1316)	0.00	(1843)	0.00005	(2965)
Claude_Makélélé	1	(1694)	0	(2670)	0	(2330)	0	(2545)	0.00	(1843)	0.00007	(2270)
Leona_Lewis	3	(803)	3	(835)	1	(1127)	2	(444)	1728.42	(1366)	0.00011	(1903)
Elihu_Root	0	(2528)	2	(1229)	0	(2330)	2	(444)	0.00	(1843)	0.00005	(2965)
Har_Gobind_Khorana	2	(1180)	1	(1804)	1	(1127)	1	(1316)	0.00	(1843)	0.00064	(377)
Marshall_Nirenberg	2	(1180)	1	(1804)	1	(1127)	1	(1316)	0.00	(1843)	0.00064	(377)
Carlos_Tévez	1	(1694)	3	(835)	1	(1127)	1	(1316)	2059.00	(1290)	0.00013	(1727)
Javier_Mascherano	1	(1694)	1	(1804)	1	(1127)	1	(1316)	0.00	(1843)	0.00009	(2114)
Dan_Aykroyd	4	(576)	0	(2670)	1	(1127)	0	(2545)	0.00	(1843)	0.00024	(1212)
Emiliano_Zapata	3	(803)	3	(835)	2	(305)	2	(444)	6778.50	(770)	0.00030	(970)
Porfirio_Díaz	3	(803)	3	(835)	2	(305)	2	(444)	4029.74	(1027)	0.00039	(737)
Thomas_Pynchon	0	(2528)	2	(1229)	0	(2330)	2	(444)	0.00	(1843)	0.00005	(2965)
William_Faulkner	3	(803)	5	(449)	2	(305)	2	(444)	14502.29	(444)	0.00054	(457)
Theodor_Herzl	1	(1694)	3	(835)	1	(1127)	2	(444)	2057.00	(1316)	0.00009	(2167)
Alfred_Dreyfus	1	(1694)	2	(1229)	1	(1127)	1	(1316)	1.00	(1822)	0.00008	(2241)
José_Sócrates	0	(2528)	1	(1804)	0	(2330)	1	(1316)	0.00	(1843)	0.00005	(2680)
Hokusai	0	(2528)	2	(1229)	0	(2330)	1	(1316)	0.00	(1843)	0.00005	(2965)
Nicolas_Boileau	0	(2528)	2	(1229)	0	(2330)	1	(1316)	0.00	(1843)	0.00005	(2965)
Hyacinthe_Rigaud	1	(1694)	0	(2670)	0	(2330)	0	(2545)	0.00	(1843)	0.00007	(2270)
Kesha	1	(1694)	4	(603)	1	(1127)	3	(39)	133.28	(1671)	0.00006	(2411)
Taio_Cruz	2	(1180)	7	(246)	1	(1127)	3	(39)	24865.98	(261)	0.00010	(1981)
August_III	3	(803)	1	(1804)	2	(305)	1	(1316)	6833.49	(762)	0.00045	(643)
Joaquin_Phoenix	2	(1180)	2	(1229)	1	(1127)	1	(1316)	343.94	(1587)	0.00012	(1848)
M._Night_Shyamalan	2	(1180)	0	(2670)	1	(1127)	0	(2545)	0.00	(1843)	0.00013	(1720)
Alfred_Schnittke	0	(2528)	1	(1804)	0	(2330)	1	(1316)	0.00	(1843)	0.00005	(2680)
Lukianos	1	(1694)	2	(1229)	1	(1127)	2	(444)	1608.34	(1381)	0.00009	(2075)
Heinrich_Schliemann	1	(1694)	0	(2670)	1	(1127)	0	(2545)	0.00	(1843)	0.00009	(2073)
William-Adolphe_Bouguereau	1	(1694)	0	(2670)	1	(1127)	0	(2545)	0.00	(1843)	0.00009	(2073)
Albert_II_(Monaco)	0	(2528)	2	(1229)	0	(2330)	1	(1316)	0.00	(1843)	0.00005	(2965)
Rainier_III	2	(1180)	2	(1229)	1	(1127)	1	(1316)	4882.05	(927)	0.00012	(1832)
Äiti_Teresa	1	(1694)	10	(128)	1	(1127)	3	(39)	11811.52	(528)	0.00014	(1657)
Pedro_Almodóvar	1	(1694)	2	(1229)	1	(1127)	2	(444)	722.04	(1515)	0.00014	(1657)
John_Keats	1	(1694)	2	(1229)	1	(1127)	1	(1316)	2057.65	(1315)	0.00007	(2408)
Gaël_Clichy	2	(1180)	0	(2670)	0	(2330)	0	(2545)	0.00	(1843)	0.00008	(2229)
Carlos_Vela	0	(2528)	2	(1229)	0	(2330)	1	(1316)	0.00	(1843)	0.00005	(2965)
Benny_Goodman	2	(1180)	0	(2670)	1	(1127)	0	(2545)	0.00	(1843)	0.00011	(1873)
Nicolás_Burdisso	0	(2528)	1	(1804)	0	(2330)	0	(2545)	0.00	(1843)	0.00005	(2680)
Friedrich_Paulus	0	(2528)	1	(1804)	0	(2330)	1	(1316)	0.00	(1843)	0.00005	(2680)
Gilles_Deleuze	2	(1180)	6	(326)	2	(305)	3	(39)	8411.62	(661)	0.00015	(1652)
Manfred_von_Richthofen	0	(2528)	1	(1804)	0	(2330)	1	(1316)	0.00	(1843)	0.00005	(2680)
John_Fowles	1	(1694)	2	(1229)	1	(1127)	1	(1316)	2642.76	(1168)	0.00009	(2157)
Henry_Wadsworth_Longfellow	0	(2528)	3	(835)	0	(2330)	1	(1316)	0.00	(1843)	0.00005	(2543)
Jonathan_Woodgate	0	(2528)	1	(1804)	0	(2330)	1	(1316)	0.00	(1843)	0.00005	(2680)
Gloria_Macapagal-Arroyo	0	(2528)	1	(1804)	0	(2330)	1	(1316)	0.00	(1843)	0.00005	(2680)
Kieran_Gibbs	0	(2528)	3	(835)	0	(2330)	1	(1316)	0.00	(1843)	0.00005	(2543)
Jean-Baptiste_Camille_Corot	1	(1694)	2	(1229)	0	(2330)	2	(444)	722.46	(1514)	0.00006	(2482)
Attila	3	(803)	0	(2670)	1	(1127)	0	(2545)	0.00	(1843)	0.00025	(1145)
Omar_Bradley	0	(2528)	1	(1804)	0	(2330)	1	(1316)	0.00	(1843)	0.00005	(2680)
Srinivasa_Ramanujan	1	(1694)	1	(1804)	1	(1127)	1	(1316)	0.00	(1843)	0.00013	(1792)
G._H._Hardy	1	(1694)	2	(1229)	1	(1127)	1	(1316)	1.00	(1822)	0.00016	(1544)
Anders_Fogh_Rasmussen	2	(1180)	3	(835)	1	(1127)	1	(1316)	3882.74	(1042)	0.00017	(1533)
Lars_Løkke_Rasmussen	1	(1694)	1	(1804)	1	(1127)	1	(1316)	0.00	(1843)	0.00010	(1976)
Iivana_III	0	(2528)	1	(1804)	0	(2330)	1	(1316)	0.00	(1843)	0.00005	(2680)
Henrik_Pontoppidan	1	(1694)	1	(1804)	1	(1127)	1	(1316)	0.00	(1843)	0.00052	(485)
Karl_Adolph_Gjellerup	1	(1694)	1	(1804)	1	(1127)	1	(1316)	0.00	(1843)	0.00052	(485)
Margareeta_I	0	(2528)	1	(1804)	0	(2330)	0	(2545)	0.00	(1843)	0.00005	(2680)
Eerik_XIII_Pommerilainen	1	(1694)	0	(2670)	0	(2330)	0	(2545)	0.00	(1843)	0.00010	(2015)
Emma_Goldman	1	(1694)	5	(449)	1	(1127)	2	(444)	2058.00	(1297)	0.00012	(1859)
Alexander_Berkman	1	(1694)	1	(1804)	1	(1127)	1	(1316)	0.00	(1843)	0.00007	(2323)
Bram_Stoker	1	(1694)	3	(835)	1	(1127)	1	(1316)	11616.15	(534)	0.00011	(1904)
Ralph_Bunche	0	(2528)	2	(1229)	0	(2330)	2	(444)	0.00	(1843)	0.00005	(2965)
Margaret_Mitchell	1	(1694)	0	(2670)	1	(1127)	0	(2545)	0.00	(1843)	0.00015	(1633)
Alfred_Russel_Wallace	3	(803)	1	(1804)	1	(1127)	1	(1316)	85.41	(1709)	0.00011	(1946)
John_C._Mather	1	(1694)	1	(1804)	1	(1127)	1	(1316)	0.00	(1843)	0.00052	(485)
George_Smoot	1	(1694)	1	(1804)	1	(1127)	1	(1316)	0.00	(1843)	0.00052	(485)
Michael_Collins_(astronautti)	0	(2528)	2	(1229)	0	(2330)	1	(1316)	0.00	(1843)	0.00005	(2965)
William_Rowan_Hamilton	0	(2528)	1	(1804)	0	(2330)	1	(1316)	0.00	(1843)	0.00005	(2680)
Trey_Parker	1	(1694)	1	(1804)	1	(1127)	1	(1316)	0.00	(1843)	0.00009	(2114)
Matt_Stone	1	(1694)	3	(835)	1	(1127)	2	(444)	2058.00	(1297)	0.00013	(1727)
Shenouda_III	1	(1694)	4	(603)	1	(1127)	2	(444)	2750.97	(1151)	0.00023	(1249)
Laura_Dern	1	(1694)	0	(2670)	1	(1127)	0	(2545)	0.00	(1843)	0.00014	(1670)
Günther_von_Kluge	1	(1694)	0	(2670)	1	(1127)	0	(2545)	0.00	(1843)	0.00007	(2358)
Michelle_Rodríguez	0	(2528)	4	(603)	0	(2330)	1	(1316)	0.00	(1843)	0.00005	(2543)
Vin_Diesel	1	(1694)	1	(1804)	0	(2330)	1	(1316)	660.80	(1525)	0.00006	(2430)
Kylie_Minogue	3	(803)	0	(2670)	1	(1127)	0	(2545)	0.00	(1843)	0.00015	(1615)
Mark_Wahlberg	1	(1694)	2	(1229)	1	(1127)	1	(1316)	5243.89	(900)	0.00007	(2307)
Matt_LeBlanc	1	(1694)	1	(1804)	1	(1127)	0	(2545)	1669.89	(1373)	0.00007	(2305)
John_Mayer	3	(803)	0	(2670)	2	(305)	0	(2545)	0.00	(1843)	0.00013	(1761)
Kevin_Bacon	2	(1180)	0	(2670)	1	(1127)	0	(2545)	0.00	(1843)	0.00009	(2105)
Hedy_Lamarr	1	(1694)	0	(2670)	0	(2330)	0	(2545)	0.00	(1843)	0.00008	(2231)
George_Lazenby	1	(1694)	5	(449)	1	(1127)	2	(444)	0.00	(1843)	0.00012	(1828)
Roger_Moore	6	(331)	3	(835)	2	(305)	2	(444)	7214.96	(726)	0.00026	(1088)
Norman_Borlaug	1	(1694)	0	(2670)	1	(1127)	0	(2545)	0.00	(1843)	0.00007	(2267)
Festus_Mogae	0	(2528)	1	(1804)	0	(2330)	1	(1316)	0.00	(1843)	0.00005	(2680)
David_Irving	1	(1694)	2	(1229)	1	(1127)	2	(444)	0.00	(1843)	0.00012	(1845)
Kristian_VI	2	(1180)	2	(1229)	2	(305)	1	(1316)	8564.03	(652)	0.00109	(151)
Carl_Barks	0	(2528)	2	(1229)	0	(2330)	2	(444)	0.00	(1843)	0.00005	(2965)
Vanessa-Mae	0	(2528)	1	(1804)	0	(2330)	1	(1316)	0.00	(1843)	0.00005	(2680)
Janet_Jackson	4	(576)	5	(449)	1	(1127)	2	(444)	11228.96	(542)	0.00018	(1433)
Yasujirō_Ozu	1	(1694)	7	(246)	1	(1127)	2	(444)	4260.12	(994)	0.00010	(1992)
Leopold_II_(keisari)	0	(2528)	2	(1229)	0	(2330)	2	(444)	0.00	(1843)	0.00005	(2965)
Patrick_Stewart	0	(2528)	2	(1229)	0	(2330)	1	(1316)	0.00	(1843)	0.00005	(2965)
Chuck_Norris	4	(576)	2	(1229)	2	(305)	1	(1316)	5869.44	(843)	0.00014	(1706)
Fredrik_Ljungberg	0	(2528)	3	(835)	0	(2330)	2	(444)	0.00	(1843)	0.00005	(2543)
Robert_Pirès	2	(1180)	0	(2670)	0	(2330)	0	(2545)	0.00	(1843)	0.00011	(1891)
Gaston_Thorn	0	(2528)	1	(1804)	0	(2330)	1	(1316)	0.00	(1843)	0.00005	(2680)
Yrjö_II_(Kreikka)	0	(2528)	2	(1229)	0	(2330)	1	(1316)	0.00	(1843)	0.00005	(2965)
Paul_I	2	(1180)	2	(1229)	1	(1127)	1	(1316)	2061.00	(1282)	0.00011	(1938)
Felipe_Melo	0	(2528)	1	(1804)	0	(2330)	0	(2545)	0.00	(1843)	0.00005	(2680)
Dunga	2	(1180)	0	(2670)	1	(1127)	0	(2545)	0.00	(1843)	0.00017	(1512)
Laurence_Fishburne	0	(2528)	1	(1804)	0	(2330)	1	(1316)	0.00	(1843)	0.00005	(2680)
D._W._Griffith	4	(576)	2	(1229)	2	(305)	1	(1316)	2924.29	(1133)	0.00029	(982)
Banksy	0	(2528)	8	(193)	0	(2330)	2	(444)	0.00	(1843)	0.00005	(2961)
Edward_Hopper	1	(1694)	0	(2670)	0	(2330)	0	(2545)	0.00	(1843)	0.00006	(2509)
Elisabeth_Vigée-Lebrun	0	(2528)	3	(835)	0	(2330)	2	(444)	0.00	(1843)	0.00005	(2543)
Fränk_Schleck	0	(2528)	2	(1229)	0	(2330)	1	(1316)	0.00	(1843)	0.00005	(2965)
Paolo_Bettini	1	(1694)	0	(2670)	0	(2330)	0	(2545)	0.00	(1843)	0.00007	(2270)
Mikel_John_Obi	0	(2528)	1	(1804)	0	(2330)	1	(1316)	0.00	(1843)	0.00005	(2680)
John_Garang	1	(1694)	1	(1804)	1	(1127)	1	(1316)	0.00	(1843)	0.00052	(485)
Salva_Kiir_Mayardit	1	(1694)	1	(1804)	1	(1127)	1	(1316)	0.00	(1843)	0.00052	(485)
Maria_II_(Englanti)	0	(2528)	3	(835)	0	(2330)	1	(1316)	0.00	(1843)	0.00005	(2543)
Henry_Purcell	1	(1694)	0	(2670)	0	(2330)	0	(2545)	0.00	(1843)	0.00007	(2377)
Arnold_J._Toynbee	1	(1694)	5	(449)	0	(2330)	2	(444)	455.07	(1564)	0.00006	(2426)
Oriana_Fallaci	0	(2528)	5	(449)	0	(2330)	3	(39)	0.00	(1843)	0.00005	(2660)
Keira_Knightley	1	(1694)	0	(2670)	0	(2330)	0	(2545)	0.00	(1843)	0.00008	(2247)
Patti_Smith	0	(2528)	6	(326)	0	(2330)	2	(444)	0.00	(1843)	0.00005	(2531)
Isabel_Martínez_de_Perón	1	(1694)	1	(1804)	1	(1127)	1	(1316)	0.00	(1843)	0.00012	(1813)
Yves_Saint-Laurent	2	(1180)	1	(1804)	1	(1127)	1	(1316)	4335.93	(989)	0.00015	(1602)
Aleksanteri_III_(paavi)	0	(2528)	2	(1229)	0	(2330)	1	(1316)	0.00	(1843)	0.00005	(2965)
Mandy_Moore	1	(1694)	5	(449)	1	(1127)	3	(39)	76840.26	(81)	0.00012	(1829)
M.I.A	0	(2528)	1	(1804)	0	(2330)	0	(2545)	0.00	(1843)	0.00005	(2680)
M.I.A.	1	(1694)	0	(2670)	0	(2330)	0	(2545)	0.00	(1843)	0.00010	(2015)
Juan_Antonio_Samaranch	1	(1694)	2	(1229)	1	(1127)	1	(1316)	2058.00	(1297)	0.00016	(1544)
Jacques_Rogge	1	(1694)	1	(1804)	1	(1127)	1	(1316)	0.00	(1843)	0.00013	(1792)
José_Antonio_Reyes	0	(2528)	1	(1804)	0	(2330)	1	(1316)	0.00	(1843)	0.00005	(2680)
Frank_Gehry	0	(2528)	1	(1804)	0	(2330)	0	(2545)	0.00	(1843)	0.00005	(2680)
Sydney_Pollack	2	(1180)	0	(2670)	1	(1127)	0	(2545)	0.00	(1843)	0.00011	(1923)
Fredrik_IV	3	(803)	2	(1229)	2	(305)	1	(1316)	6973.36	(748)	0.00128	(118)
Jacques_Necker	2	(1180)	0	(2670)	2	(305)	0	(2545)	0.00	(1843)	0.00034	(856)
Frans_I_(keisari)	1	(1694)	2	(1229)	1	(1127)	2	(444)	0.00	(1843)	0.00022	(1272)
La_Fayette	1	(1694)	10	(128)	1	(1127)	3	(39)	13439.10	(469)	0.00022	(1273)
Adolfo_Suárez	1	(1694)	1	(1804)	1	(1127)	1	(1316)	0.00	(1843)	0.00029	(997)
Jordin_Sparks	0	(2528)	14	(44)	0	(2330)	3	(39)	0.00	(1843)	0.00005	(2528)
Carrie_Underwood	1	(1694)	0	(2670)	0	(2330)	0	(2545)	0.00	(1843)	0.00005	(2521)
Karl_Barth	1	(1694)	2	(1229)	0	(2330)	1	(1316)	215.66	(1630)	0.00007	(2371)
Domitianus	0	(2528)	3	(835)	0	(2330)	1	(1316)	0.00	(1843)	0.00005	(2543)
Thomas_Müntzer	0	(2528)	1	(1804)	0	(2330)	1	(1316)	0.00	(1843)	0.00005	(2680)
Saladin	2	(1180)	0	(2670)	1	(1127)	0	(2545)	0.00	(1843)	0.00025	(1155)
Aldo_Moro	1	(1694)	2	(1229)	1	(1127)	0	(2545)	3156.54	(1112)	0.00010	(2050)
Francesco_Cossiga	1	(1694)	0	(2670)	1	(1127)	0	(2545)	0.00	(1843)	0.00010	(2068)
Karl_Liebknecht	3	(803)	4	(603)	2	(305)	2	(444)	1371.14	(1409)	0.00046	(616)
Ian_Holm	0	(2528)	4	(603)	0	(2330)	1	(1316)	0.00	(1843)	0.00005	(2543)
Kristen_Stewart	2	(1180)	5	(449)	1	(1127)	2	(444)	5502.58	(878)	0.00008	(2220)
Shakira	4	(576)	3	(835)	2	(305)	2	(444)	10252.33	(579)	0.00028	(1045)
Charlie_Sheen	0	(2528)	3	(835)	0	(2330)	1	(1316)	0.00	(1843)	0.00005	(2543)
Michael_Douglas	5	(441)	4	(603)	2	(305)	1	(1316)	9897.63	(599)	0.00047	(603)
Michelle_Pfeiffer	2	(1180)	0	(2670)	1	(1127)	0	(2545)	0.00	(1843)	0.00007	(2327)
Keanu_Reeves	2	(1180)	3	(835)	1	(1127)	2	(444)	2292.95	(1236)	0.00007	(2325)
Richard_Rorty	0	(2528)	3	(835)	0	(2330)	2	(444)	0.00	(1843)	0.00005	(2543)
Pyhä_Gregorius_VII	0	(2528)	1	(1804)	0	(2330)	1	(1316)	0.00	(1843)	0.00005	(2680)
Moshe_Dayan	1	(1694)	3	(835)	1	(1127)	2	(444)	117.93	(1681)	0.00009	(2071)
Jevgeni_Pljuštšenko	1	(1694)	0	(2670)	1	(1127)	0	(2545)	0.00	(1843)	0.00006	(2453)
Paul_D._Boyer	1	(1694)	1	(1804)	1	(1127)	1	(1316)	0.00	(1843)	0.00052	(485)
Jens_Christian_Skou	1	(1694)	1	(1804)	1	(1127)	1	(1316)	0.00	(1843)	0.00052	(485)
Adrian_Mutu	1	(1694)	3	(835)	1	(1127)	1	(1316)	2058.00	(1297)	0.00013	(1727)
Gheorghe_Hagi	1	(1694)	1	(1804)	1	(1127)	1	(1316)	0.00	(1843)	0.00009	(2114)
Günter_Grass	1	(1694)	2	(1229)	1	(1127)	1	(1316)	2445.56	(1188)	0.00007	(2364)
Kingsley_Amis	1	(1694)	1	(1804)	1	(1127)	1	(1316)	0.00	(1843)	0.00020	(1327)
Kaarle_VII_(Ranska)	0	(2528)	1	(1804)	0	(2330)	1	(1316)	0.00	(1843)	0.00005	(2680)
Hashim_Thaçi	0	(2528)	1	(1804)	0	(2330)	1	(1316)	0.00	(1843)	0.00005	(2680)
Yrjö_I_(Kreikka)	0	(2528)	6	(326)	0	(2330)	2	(444)	0.00	(1843)	0.00005	(2531)
Ashley_Young	0	(2528)	1	(1804)	0	(2330)	1	(1316)	0.00	(1843)	0.00005	(2680)
Sid_Vicious	0	(2528)	3	(835)	0	(2330)	3	(39)	0.00	(1843)	0.00005	(2543)
Josef_Dietrich	0	(2528)	2	(1229)	0	(2330)	2	(444)	0.00	(1843)	0.00005	(2965)
Howard_Carter	1	(1694)	1	(1804)	1	(1127)	1	(1316)	0.00	(1843)	0.00040	(720)
Tutankhamon	2	(1180)	2	(1229)	1	(1127)	1	(1316)	2.00	(1814)	0.00077	(282)
Didier_Drogba	1	(1694)	0	(2670)	1	(1127)	0	(2545)	0.00	(1843)	0.00009	(2130)
Heinrich_Mann	0	(2528)	2	(1229)	0	(2330)	2	(444)	0.00	(1843)	0.00005	(2965)
Ian_Curtis	0	(2528)	5	(449)	0	(2330)	1	(1316)	0.00	(1843)	0.00005	(2660)
Max_Stirner	1	(1694)	3	(835)	1	(1127)	2	(444)	1426.82	(1403)	0.00023	(1219)
Pierre-Joseph_Proudhon	2	(1180)	3	(835)	1	(1127)	2	(444)	3227.93	(1101)	0.00061	(402)
Bertie_Ahern	0	(2528)	1	(1804)	0	(2330)	1	(1316)	0.00	(1843)	0.00005	(2680)
Amartya_Sen	0	(2528)	3	(835)	0	(2330)	2	(444)	0.00	(1843)	0.00005	(2543)
Aleksanteri_(Kreikka)	0	(2528)	1	(1804)	0	(2330)	1	(1316)	0.00	(1843)	0.00005	(2680)
Gregorius_XV	1	(1694)	1	(1804)	1	(1127)	1	(1316)	0.00	(1843)	0.00018	(1457)
Steve_McQueen	3	(803)	0	(2670)	2	(305)	0	(2545)	0.00	(1843)	0.00016	(1582)
Jean_Giraud	0	(2528)	1	(1804)	0	(2330)	0	(2545)	0.00	(1843)	0.00005	(2680)
James_Coburn	1	(1694)	1	(1804)	1	(1127)	0	(2545)	13.60	(1768)	0.00009	(2136)
Nick_Nolte	3	(803)	0	(2670)	1	(1127)	0	(2545)	0.00	(1843)	0.00019	(1427)
Jakob_Bernoulli	2	(1180)	2	(1229)	1	(1127)	1	(1316)	61.64	(1725)	0.00011	(1879)
William_S._Knowles	0	(2528)	1	(1804)	0	(2330)	1	(1316)	0.00	(1843)	0.00005	(2680)
Dylan_Thomas	1	(1694)	0	(2670)	1	(1127)	0	(2545)	0.00	(1843)	0.00008	(2248)
Wilhelm_Busch	1	(1694)	0	(2670)	1	(1127)	0	(2545)	0.00	(1843)	0.00008	(2248)
Siddhartha_Gautama	1	(1694)	0	(2670)	1	(1127)	0	(2545)	0.00	(1843)	0.00008	(2248)
Ferdinand_Tönnies	1	(1694)	0	(2670)	1	(1127)	0	(2545)	0.00	(1843)	0.00008	(2248)
Maimonides	1	(1694)	0	(2670)	1	(1127)	0	(2545)	0.00	(1843)	0.00007	(2331)
Margaret_Atwood	1	(1694)	0	(2670)	1	(1127)	0	(2545)	0.00	(1843)	0.00009	(2156)
Dirk_Kuyt	1	(1694)	0	(2670)	1	(1127)	0	(2545)	0.00	(1843)	0.00013	(1741)
György_Ligeti	0	(2528)	5	(449)	0	(2330)	2	(444)	0.00	(1843)	0.00005	(2660)
Benoît_Mandelbrot	1	(1694)	0	(2670)	0	(2330)	0	(2545)	0.00	(1843)	0.00006	(2463)
Lewis_Carroll	2	(1180)	0	(2670)	0	(2330)	0	(2545)	0.00	(1843)	0.00008	(2189)
José_Carreras	1	(1694)	1	(1804)	1	(1127)	1	(1316)	0.00	(1843)	0.00011	(1917)
Charles_Curtis	0	(2528)	1	(1804)	0	(2330)	1	(1316)	0.00	(1843)	0.00005	(2680)
Tomáš_Rosický	0	(2528)	1	(1804)	0	(2330)	0	(2545)	0.00	(1843)	0.00005	(2680)
Danny_Elfman	1	(1694)	1	(1804)	1	(1127)	1	(1316)	0.00	(1843)	0.00025	(1164)
Danny_Glover	1	(1694)	0	(2670)	1	(1127)	0	(2545)	0.00	(1843)	0.00015	(1627)
Philip_Pullman	1	(1694)	3	(835)	1	(1127)	2	(444)	198.39	(1637)	0.00010	(1982)
John_Knox	0	(2528)	3	(835)	0	(2330)	2	(444)	0.00	(1843)	0.00005	(2543)
Léon_Blum	0	(2528)	2	(1229)	0	(2330)	1	(1316)	0.00	(1843)	0.00005	(2965)
Boris_Pasternak	4	(576)	3	(835)	1	(1127)	1	(1316)	16242.58	(398)	0.00035	(811)
Osip_Mandelštam	2	(1180)	0	(2670)	1	(1127)	0	(2545)	0.00	(1843)	0.00020	(1361)
Marina_Tsvetajeva	2	(1180)	4	(603)	1	(1127)	1	(1316)	7148.56	(732)	0.00018	(1473)
Charles_Babbage	3	(803)	0	(2670)	2	(305)	0	(2545)	0.00	(1843)	0.00025	(1170)
Henry_Thoreau	0	(2528)	1	(1804)	0	(2330)	1	(1316)	0.00	(1843)	0.00005	(2680)
Rose_Byrne	0	(2528)	2	(1229)	0	(2330)	1	(1316)	0.00	(1843)	0.00005	(2965)
Betty_Ford	0	(2528)	2	(1229)	0	(2330)	2	(444)	0.00	(1843)	0.00005	(2965)
Wilhelm_Röntgen	1	(1694)	2	(1229)	1	(1127)	2	(444)	5605.05	(869)	0.00007	(2312)
Andrew_Carnegie	1	(1694)	0	(2670)	1	(1127)	0	(2545)	0.00	(1843)	0.00007	(2313)
Gabriel_Lippmann	1	(1694)	0	(2670)	1	(1127)	0	(2545)	0.00	(1843)	0.00007	(2313)
Anne-Sophie_Mutter	0	(2528)	4	(603)	0	(2330)	1	(1316)	0.00	(1843)	0.00005	(2543)
Witold_Lutosławski	1	(1694)	0	(2670)	0	(2330)	0	(2545)	0.00	(1843)	0.00006	(2430)
Doris_Day	2	(1180)	3	(835)	2	(305)	2	(444)	2635.75	(1169)	0.00032	(889)
Salomon_Kalou	0	(2528)	1	(1804)	0	(2330)	1	(1316)	0.00	(1843)	0.00005	(2680)
Michael_Gambon	2	(1180)	0	(2670)	1	(1127)	0	(2545)	0.00	(1843)	0.00010	(2001)
Quinton_Fortune	0	(2528)	1	(1804)	0	(2330)	0	(2545)	0.00	(1843)	0.00005	(2680)
Du_Fu	0	(2528)	1	(1804)	0	(2330)	0	(2545)	0.00	(1843)	0.00005	(2680)
Li_Bai	1	(1694)	0	(2670)	0	(2330)	0	(2545)	0.00	(1843)	0.00010	(2015)
Adrien_Brody	0	(2528)	1	(1804)	0	(2330)	1	(1316)	0.00	(1843)	0.00005	(2680)
Martin_Evans	2	(1180)	2	(1229)	2	(305)	2	(444)	0.00	(1843)	0.00024	(1188)
Oliver_Smithies	2	(1180)	2	(1229)	2	(305)	2	(444)	0.00	(1843)	0.00024	(1188)
Mario_Capecchi	2	(1180)	3	(835)	2	(305)	2	(444)	4.00	(1800)	0.00027	(1075)
Thabo_Mbeki	2	(1180)	2	(1229)	1	(1127)	2	(444)	4948.48	(922)	0.00026	(1104)
Kristian_V	2	(1180)	1	(1804)	1	(1127)	1	(1316)	2055.00	(1323)	0.00065	(372)
Henry_Temple	0	(2528)	1	(1804)	0	(2330)	1	(1316)	0.00	(1843)	0.00005	(2680)
Jeff_Goldblum	0	(2528)	1	(1804)	0	(2330)	1	(1316)	0.00	(1843)	0.00005	(2680)
Andy_Schleck	1	(1694)	1	(1804)	1	(1127)	1	(1316)	1173.90	(1440)	0.00014	(1698)
Karl_Landsteiner	0	(2528)	1	(1804)	0	(2330)	0	(2545)	0.00	(1843)	0.00005	(2680)
Hermann_Emil_Fischer	1	(1694)	0	(2670)	0	(2330)	0	(2545)	0.00	(1843)	0.00010	(2015)
Henrik_Purjehtija	1	(1694)	0	(2670)	1	(1127)	0	(2545)	0.00	(1843)	0.00010	(1989)
Gustav_Ludwig_Hertz	3	(803)	3	(835)	2	(305)	2	(444)	6330.56	(809)	0.00068	(342)
Vilhelm_IV_(Iso-Britannia)	0	(2528)	1	(1804)	0	(2330)	1	(1316)	0.00	(1843)	0.00005	(2680)
Yrjö_II_(Iso-Britannia)	0	(2528)	1	(1804)	0	(2330)	1	(1316)	0.00	(1843)	0.00005	(2680)
Henry_Fielding	1	(1694)	0	(2670)	1	(1127)	0	(2545)	0.00	(1843)	0.00014	(1696)
Jean_de_La_Fontaine	1	(1694)	1	(1804)	1	(1127)	1	(1316)	2267.78	(1238)	0.00014	(1696)
Richard_Wright_(muusikko)	0	(2528)	3	(835)	0	(2330)	1	(1316)	0.00	(1843)	0.00005	(2543)
Joséphine_Baker	0	(2528)	2	(1229)	0	(2330)	1	(1316)	0.00	(1843)	0.00005	(2965)
Kaarle_I_(Itävalta)	0	(2528)	4	(603)	0	(2330)	2	(444)	0.00	(1843)	0.00005	(2543)
Miklós_Horthy	2	(1180)	0	(2670)	1	(1127)	0	(2545)	0.00	(1843)	0.00010	(1971)
John_Kenneth_Galbraith	0	(2528)	3	(835)	0	(2330)	3	(39)	0.00	(1843)	0.00005	(2543)
Jodie_Foster	2	(1180)	0	(2670)	1	(1127)	0	(2545)	0.00	(1843)	0.00010	(1987)
Catherine_Zeta-Jones	1	(1694)	1	(1804)	1	(1127)	1	(1316)	0.00	(1843)	0.00016	(1577)
Nikolai_Rimski-Korsakov	4	(576)	3	(835)	2	(305)	1	(1316)	12878.69	(483)	0.00042	(687)
Coco_Chanel	1	(1694)	0	(2670)	1	(1127)	0	(2545)	0.00	(1843)	0.00015	(1598)
Vladimir_Majakovski	2	(1180)	1	(1804)	1	(1127)	1	(1316)	5667.96	(865)	0.00027	(1063)
Tadeusz_Kościuszko	1	(1694)	0	(2670)	1	(1127)	0	(2545)	0.00	(1843)	0.00011	(1883)
Kevin_Kline	1	(1694)	2	(1229)	1	(1127)	1	(1316)	557.43	(1539)	0.00007	(2317)
Maksimilian_I_(Meksiko)	0	(2528)	3	(835)	0	(2330)	2	(444)	0.00	(1843)	0.00005	(2543)
Lionel_Richie	3	(803)	7	(246)	2	(305)	3	(39)	23548.91	(276)	0.00017	(1495)
Christophe_Dugarry	1	(1694)	0	(2670)	1	(1127)	0	(2545)	0.00	(1843)	0.00028	(1015)
Hilary_Duff	0	(2528)	7	(246)	0	(2330)	2	(444)	0.00	(1843)	0.00005	(3087)
John_Cusack	1	(1694)	0	(2670)	0	(2330)	0	(2545)	0.00	(1843)	0.00006	(2504)
Jon_Bon_Jovi	1	(1694)	0	(2670)	1	(1127)	0	(2545)	0.00	(1843)	0.00018	(1443)
Akhenaten	1	(1694)	1	(1804)	1	(1127)	1	(1316)	0.00	(1843)	0.00040	(720)
Stan_Winston	1	(1694)	0	(2670)	1	(1127)	0	(2545)	0.00	(1843)	0.00008	(2178)
Magic_Johnson	2	(1180)	1	(1804)	1	(1127)	0	(2545)	302.76	(1602)	0.00009	(2099)
A._R._Rahman	1	(1694)	0	(2670)	1	(1127)	0	(2545)	0.00	(1843)	0.00008	(2178)
Kathy_Bates	1	(1694)	1	(1804)	1	(1127)	1	(1316)	0.00	(1843)	0.00015	(1621)
Hugo_Sánchez	1	(1694)	0	(2670)	1	(1127)	0	(2545)	0.00	(1843)	0.00009	(2104)
River_Phoenix	0	(2528)	5	(449)	0	(2330)	2	(444)	0.00	(1843)	0.00005	(2660)
Sandra_Bullock	1	(1694)	1	(1804)	0	(2330)	1	(1316)	80.31	(1712)	0.00006	(2463)
Tzipi_Livni	2	(1180)	4	(603)	2	(305)	3	(39)	47.29	(1736)	0.00018	(1449)
Néstor_Kirchner	2	(1180)	7	(246)	2	(305)	3	(39)	8321.60	(664)	0.00011	(1875)
Robert_Peary	1	(1694)	0	(2670)	1	(1127)	0	(2545)	0.00	(1843)	0.00008	(2177)
P._G._Wodehouse	2	(1180)	8	(193)	2	(305)	2	(444)	21410.67	(301)	0.00038	(762)
Douglas_Adams	1	(1694)	2	(1229)	1	(1127)	1	(1316)	2721.02	(1157)	0.00009	(2089)
Davíð_Oddsson	0	(2528)	4	(603)	0	(2330)	3	(39)	0.00	(1843)	0.00005	(2543)
Ólafur_Ragnar_Grímsson	1	(1694)	0	(2670)	0	(2330)	0	(2545)	0.00	(1843)	0.00006	(2430)
Alfons_Mucha	0	(2528)	1	(1804)	0	(2330)	1	(1316)	0.00	(1843)	0.00005	(2680)
Sarah_Bernhardt	1	(1694)	1	(1804)	0	(2330)	1	(1316)	2058.00	(1297)	0.00010	(2015)
Walter_Raleigh	1	(1694)	1	(1804)	1	(1127)	1	(1316)	1459.38	(1396)	0.00008	(2206)
Michael_Essien	1	(1694)	0	(2670)	1	(1127)	0	(2545)	0.00	(1843)	0.00009	(2083)
Nicanor_Duarte_Frutos	0	(2528)	1	(1804)	0	(2330)	1	(1316)	0.00	(1843)	0.00005	(2680)
Bernardo_O’Higgins	0	(2528)	2	(1229)	0	(2330)	1	(1316)	0.00	(1843)	0.00005	(2965)
Edmond_Halley	2	(1180)	1	(1804)	2	(305)	1	(1316)	0.00	(1843)	0.00018	(1486)
Zine_el-Abidine_Ben_Ali	0	(2528)	1	(1804)	0	(2330)	0	(2545)	0.00	(1843)	0.00005	(2680)
Habib_Bourguiba	1	(1694)	0	(2670)	0	(2330)	0	(2545)	0.00	(1843)	0.00010	(2015)
Jean-Baptiste_Lamarck	2	(1180)	2	(1229)	1	(1127)	1	(1316)	3659.20	(1060)	0.00011	(1896)
David_Carradine	1	(1694)	0	(2670)	1	(1127)	0	(2545)	0.00	(1843)	0.00006	(2496)
Dirk_Bogarde	1	(1694)	1	(1804)	1	(1127)	1	(1316)	4435.64	(971)	0.00006	(2496)
Jeff_Bridges	1	(1694)	6	(326)	1	(1127)	2	(444)	3216.71	(1102)	0.00006	(2496)
Albert_R._Broccoli	1	(1694)	0	(2670)	1	(1127)	0	(2545)	0.00	(1843)	0.00006	(2496)
Telly_Savalas	1	(1694)	0	(2670)	1	(1127)	0	(2545)	0.00	(1843)	0.00006	(2496)
Freddie_Highmore	1	(1694)	4	(603)	1	(1127)	1	(1316)	10710.85	(561)	0.00006	(2503)
Jean-Claude_Van_Damme	1	(1694)	6	(326)	1	(1127)	2	(444)	177751.78	(22)	0.00008	(2262)
Markiisi_de_Condorcet	1	(1694)	0	(2670)	1	(1127)	0	(2545)	0.00	(1843)	0.00007	(2328)
Ernst_Happel	1	(1694)	0	(2670)	1	(1127)	0	(2545)	0.00	(1843)	0.00020	(1363)
Filip_IV_(Espanja)	0	(2528)	1	(1804)	0	(2330)	1	(1316)	0.00	(1843)	0.00005	(2680)
Otto_Neurath	0	(2528)	1	(1804)	0	(2330)	1	(1316)	0.00	(1843)	0.00005	(2680)
Ferdinand_Katolilainen	0	(2528)	2	(1229)	0	(2330)	2	(444)	0.00	(1843)	0.00005	(2965)
Anna_Pavlova_(balettitanssija)	0	(2528)	2	(1229)	0	(2330)	1	(1316)	0.00	(1843)	0.00005	(2965)
Susan_Boyle	0	(2528)	1	(1804)	0	(2330)	1	(1316)	0.00	(1843)	0.00005	(2680)
Sergei_Stanišev	1	(1694)	2	(1229)	1	(1127)	1	(1316)	2353.00	(1221)	0.00009	(2101)
Boris_III	1	(1694)	2	(1229)	1	(1127)	2	(444)	1494.98	(1392)	0.00009	(2101)
Baha’ullah	0	(2528)	1	(1804)	0	(2330)	0	(2545)	0.00	(1843)	0.00005	(2680)
Islom_Karimov	0	(2528)	2	(1229)	0	(2330)	1	(1316)	0.00	(1843)	0.00005	(2965)
J._D._Salinger	1	(1694)	3	(835)	0	(2330)	1	(1316)	1243.86	(1429)	0.00006	(2458)
Cristina_Fernández_de_Kirchner	2	(1180)	3	(835)	2	(305)	2	(444)	59.14	(1726)	0.00010	(2062)
Ferruccio_Lamborghini	0	(2528)	1	(1804)	0	(2330)	1	(1316)	0.00	(1843)	0.00005	(2680)
Larry_Sanger	1	(1694)	1	(1804)	1	(1127)	1	(1316)	0.00	(1843)	0.00052	(485)
Jimmy_Wales	1	(1694)	1	(1804)	1	(1127)	1	(1316)	0.00	(1843)	0.00052	(485)
Marc_Bloch	0	(2528)	2	(1229)	0	(2330)	0	(2545)	0.00	(1843)	0.00005	(2965)
Émile_Durkheim	2	(1180)	1	(1804)	0	(2330)	0	(2545)	1.00	(1822)	0.00012	(1830)
Taylor_Momsen	1	(1694)	0	(2670)	1	(1127)	0	(2545)	0.00	(1843)	0.00008	(2233)
Ashley_Tisdale	1	(1694)	0	(2670)	1	(1127)	0	(2545)	0.00	(1843)	0.00008	(2233)
Stieg_Larsson	1	(1694)	0	(2670)	1	(1127)	0	(2545)	0.00	(1843)	0.00008	(2264)
Victor_F._Hess	0	(2528)	1	(1804)	0	(2330)	1	(1316)	0.00	(1843)	0.00005	(2680)
Jamie_Lynn_Spears	0	(2528)	1	(1804)	0	(2330)	1	(1316)	0.00	(1843)	0.00005	(2680)
Diane_Kruger	0	(2528)	1	(1804)	0	(2330)	1	(1316)	0.00	(1843)	0.00005	(2680)
Hergé	1	(1694)	1	(1804)	1	(1127)	1	(1316)	7958.71	(683)	0.00032	(900)
Hans-Ulrich_Rudel	0	(2528)	2	(1229)	0	(2330)	2	(444)	0.00	(1843)	0.00005	(2965)
Subrahmanyan_Chandrasekhar	0	(2528)	1	(1804)	0	(2330)	1	(1316)	0.00	(1843)	0.00005	(2680)
Eugen_Savoijilainen	0	(2528)	2	(1229)	0	(2330)	1	(1316)	0.00	(1843)	0.00005	(2965)
Otto_I_Suuri	2	(1180)	2	(1229)	1	(1127)	1	(1316)	2064.00	(1275)	0.00043	(658)
Henrik_I_Linnustaja	1	(1694)	1	(1804)	1	(1127)	1	(1316)	0.00	(1843)	0.00025	(1168)
Shirin_Ebadi	0	(2528)	1	(1804)	0	(2330)	1	(1316)	0.00	(1843)	0.00005	(2680)
Fredrik_II_(Tanska)	0	(2528)	4	(603)	0	(2330)	2	(444)	0.00	(1843)	0.00005	(2543)
Kristian_III	1	(1694)	0	(2670)	0	(2330)	0	(2545)	0.00	(1843)	0.00006	(2430)
François_Quesnay	0	(2528)	1	(1804)	0	(2330)	1	(1316)	0.00	(1843)	0.00005	(2680)
Henrik_III_(Englanti)	0	(2528)	2	(1229)	0	(2330)	1	(1316)	0.00	(1843)	0.00005	(2965)
Francisco_de_Goya	0	(2528)	3	(835)	0	(2330)	2	(444)	0.00	(1843)	0.00005	(2543)
Engelbert_Dollfuss	1	(1694)	0	(2670)	1	(1127)	0	(2545)	0.00	(1843)	0.00014	(1717)
The_Kooks	0	(2528)	1	(1804)	0	(2330)	1	(1316)	0.00	(1843)	0.00005	(2680)
Willard_Van_Orman_Quine	0	(2528)	1	(1804)	0	(2330)	1	(1316)	0.00	(1843)	0.00005	(2680)
Debra_Winger	0	(2528)	6	(326)	0	(2330)	1	(1316)	0.00	(1843)	0.00005	(2531)
Bob_Hope	1	(1694)	0	(2670)	1	(1127)	0	(2545)	0.00	(1843)	0.00010	(1996)
George_F._Kennan	0	(2528)	2	(1229)	0	(2330)	2	(444)	0.00	(1843)	0.00005	(2965)
Anastasia_Nikolajevna_Romanova	0	(2528)	2	(1229)	0	(2330)	2	(444)	0.00	(1843)	0.00005	(2965)
Hideki_Tōjō	1	(1694)	1	(1804)	1	(1127)	1	(1316)	0.00	(1843)	0.00017	(1522)
Satoshi_Tajiri	0	(2528)	1	(1804)	0	(2330)	0	(2545)	0.00	(1843)	0.00005	(2680)
Shigeru_Miyamoto	2	(1180)	0	(2670)	0	(2330)	0	(2545)	0.00	(1843)	0.00012	(1830)
Saint-John_Perse	0	(2528)	3	(835)	0	(2330)	1	(1316)	0.00	(1843)	0.00005	(2543)
Lars_Onsager	0	(2528)	4	(603)	0	(2330)	1	(1316)	0.00	(1843)	0.00005	(2543)
Peter_Debye	1	(1694)	2	(1229)	0	(2330)	2	(444)	2057.00	(1316)	0.00006	(2421)
Aníbal_Cavaco_Silva	1	(1694)	0	(2670)	1	(1127)	0	(2545)	0.00	(1843)	0.00016	(1539)
Thor_Heyerdahl	0	(2528)	1	(1804)	0	(2330)	0	(2545)	0.00	(1843)	0.00005	(2680)
Snorri_Sturluson	1	(1694)	0	(2670)	0	(2330)	0	(2545)	0.00	(1843)	0.00010	(2015)
Mário_Soares	0	(2528)	1	(1804)	0	(2330)	1	(1316)	0.00	(1843)	0.00005	(2680)
Owen_Hargreaves	0	(2528)	1	(1804)	0	(2330)	1	(1316)	0.00	(1843)	0.00005	(2680)
Egon_Schiele	0	(2528)	1	(1804)	0	(2330)	1	(1316)	0.00	(1843)	0.00005	(2680)
James_Longstreet	0	(2528)	4	(603)	0	(2330)	1	(1316)	0.00	(1843)	0.00005	(2543)
Shaquille_O'Neal	2	(1180)	0	(2670)	1	(1127)	0	(2545)	0.00	(1843)	0.00009	(2076)
Kevin_Garnett	1	(1694)	0	(2670)	1	(1127)	0	(2545)	0.00	(1843)	0.00006	(2474)
Bernard_Haitink	0	(2528)	3	(835)	0	(2330)	2	(444)	0.00	(1843)	0.00005	(2543)
Paul_Samuelson	1	(1694)	1	(1804)	1	(1127)	1	(1316)	0.00	(1843)	0.00008	(2222)
Paul_Krugman	1	(1694)	4	(603)	1	(1127)	2	(444)	2058.00	(1297)	0.00012	(1820)
Frances_McDormand	0	(2528)	1	(1804)	0	(2330)	1	(1316)	0.00	(1843)	0.00005	(2680)
Mateja_Kežman	1	(1694)	0	(2670)	0	(2330)	0	(2545)	0.00	(1843)	0.00008	(2219)
Walter_Gropius	0	(2528)	2	(1229)	0	(2330)	2	(444)	0.00	(1843)	0.00005	(2965)
Jean_Baptiste_Perrin	1	(1694)	0	(2670)	1	(1127)	0	(2545)	0.00	(1843)	0.00008	(2216)
Rainer_Werner_Fassbinder	1	(1694)	4	(603)	0	(2330)	2	(444)	514.52	(1549)	0.00006	(2429)
Adolf_von_Baeyer	1	(1694)	2	(1229)	0	(2330)	1	(1316)	5.00	(1792)	0.00010	(2009)
Roald_Dahl	1	(1694)	0	(2670)	1	(1127)	0	(2545)	0.00	(1843)	0.00021	(1287)
John_Wilkes_Booth	1	(1694)	1	(1804)	1	(1127)	1	(1316)	0.00	(1843)	0.00080	(263)
Nguyễn_Minh_Triết	0	(2528)	1	(1804)	0	(2330)	0	(2545)	0.00	(1843)	0.00005	(2680)
Nguyễn_Tấn_Dũng	1	(1694)	0	(2670)	0	(2330)	0	(2545)	0.00	(1843)	0.00010	(2015)
Pau_Gasol	0	(2528)	1	(1804)	0	(2330)	1	(1316)	0.00	(1843)	0.00005	(2680)
Dirk_Nowitzki	1	(1694)	2	(1229)	0	(2330)	1	(1316)	2063.00	(1276)	0.00010	(2009)
Paul_Wolfowitz	0	(2528)	1	(1804)	0	(2330)	1	(1316)	0.00	(1843)	0.00005	(2680)
Virgil_Grissom	0	(2528)	1	(1804)	0	(2330)	1	(1316)	0.00	(1843)	0.00005	(2680)
Yehudi_Menuhin	0	(2528)	2	(1229)	0	(2330)	1	(1316)	0.00	(1843)	0.00005	(2965)
Darren_Bent	1	(1694)	0	(2670)	1	(1127)	0	(2545)	0.00	(1843)	0.00016	(1587)
Robbie_Keane	1	(1694)	1	(1804)	1	(1127)	1	(1316)	0.00	(1843)	0.00016	(1587)
Mido	1	(1694)	0	(2670)	1	(1127)	0	(2545)	0.00	(1843)	0.00016	(1587)
Mohamed_Farrah_Aidid	0	(2528)	1	(1804)	0	(2330)	1	(1316)	0.00	(1843)	0.00005	(2680)
Kostas_Simitis	0	(2528)	1	(1804)	0	(2330)	1	(1316)	0.00	(1843)	0.00005	(2680)
Paul_Ehrlich	0	(2528)	1	(1804)	0	(2330)	0	(2545)	0.00	(1843)	0.00005	(2680)
Ilja_Metšnikov	1	(1694)	0	(2670)	0	(2330)	0	(2545)	0.00	(1843)	0.00010	(2015)
Mary_Cassatt	0	(2528)	2	(1229)	0	(2330)	1	(1316)	0.00	(1843)	0.00005	(2965)
Pyhä_Yrjö	1	(1694)	5	(449)	1	(1127)	2	(444)	5140.22	(911)	0.00026	(1099)
Gustave_Courbet	0	(2528)	6	(326)	0	(2330)	2	(444)	0.00	(1843)	0.00005	(2531)
Paul_Robeson	0	(2528)	1	(1804)	0	(2330)	1	(1316)	0.00	(1843)	0.00005	(2680)
Shaun_Wright-Phillips	0	(2528)	1	(1804)	0	(2330)	1	(1316)	0.00	(1843)	0.00005	(2680)
Jean_Simmons	0	(2528)	1	(1804)	0	(2330)	1	(1316)	0.00	(1843)	0.00005	(2680)
Germaine_Greer	0	(2528)	1	(1804)	0	(2330)	1	(1316)	0.00	(1843)	0.00005	(2680)
Giotto_di_Bondone	1	(1694)	5	(449)	1	(1127)	2	(444)	8113.03	(674)	0.00029	(998)
Enya	0	(2528)	4	(603)	0	(2330)	2	(444)	0.00	(1843)	0.00005	(2543)
Steven_Seagal	1	(1694)	1	(1804)	1	(1127)	1	(1316)	69.85	(1717)	0.00006	(2447)
Manuel_Zelaya	0	(2528)	4	(603)	0	(2330)	2	(444)	0.00	(1843)	0.00005	(2543)
Alexander_Pope	0	(2528)	2	(1229)	0	(2330)	2	(444)	0.00	(1843)	0.00005	(2965)
Friedrich_von_Schelling	1	(1694)	0	(2670)	1	(1127)	0	(2545)	0.00	(1843)	0.00010	(2003)
Robert_Owen	0	(2528)	1	(1804)	0	(2330)	1	(1316)	0.00	(1843)	0.00005	(2680)
Kurt_Vonnegut	3	(803)	0	(2670)	1	(1127)	0	(2545)	0.00	(1843)	0.00009	(2147)
Sunzi	1	(1694)	7	(246)	1	(1127)	2	(444)	7835.60	(692)	0.00006	(2418)
Mike_Tyson	1	(1694)	0	(2670)	1	(1127)	0	(2545)	0.00	(1843)	0.00006	(2417)
Andrea_Palladio	0	(2528)	3	(835)	0	(2330)	1	(1316)	0.00	(1843)	0.00005	(2543)
José_Saramago	0	(2528)	1	(1804)	0	(2330)	0	(2545)	0.00	(1843)	0.00005	(2680)
Fernando_Pessoa	1	(1694)	0	(2670)	0	(2330)	0	(2545)	0.00	(1843)	0.00010	(2015)
Claudia_Schiffer	0	(2528)	1	(1804)	0	(2330)	1	(1316)	0.00	(1843)	0.00005	(2680)
Ahmed_Ben_Bella	0	(2528)	2	(1229)	0	(2330)	2	(444)	0.00	(1843)	0.00005	(2965)
Évariste_Galois	1	(1694)	0	(2670)	1	(1127)	0	(2545)	0.00	(1843)	0.00014	(1679)
Epikuros	0	(2528)	5	(449)	0	(2330)	2	(444)	0.00	(1843)	0.00005	(2660)
Aleksanteri_III_(Venäjä)	0	(2528)	5	(449)	0	(2330)	2	(444)	0.00	(1843)	0.00005	(2660)
Valdas_Adamkus	0	(2528)	1	(1804)	0	(2330)	1	(1316)	0.00	(1843)	0.00005	(2680)
Charles_Gounod	0	(2528)	3	(835)	0	(2330)	2	(444)	0.00	(1843)	0.00005	(2543)
Tabaré_Vázquez	2	(1180)	1	(1804)	1	(1127)	1	(1316)	2057.00	(1316)	0.00011	(1894)
Howard_Hughes	1	(1694)	5	(449)	1	(1127)	3	(39)	5752.64	(855)	0.00010	(2055)
Joseph_Priestley	2	(1180)	0	(2670)	1	(1127)	0	(2545)	0.00	(1843)	0.00019	(1404)
Satyajit_Ray	0	(2528)	1	(1804)	0	(2330)	1	(1316)	0.00	(1843)	0.00005	(2680)
Gregor_Mendel	1	(1694)	0	(2670)	1	(1127)	0	(2545)	0.00	(1843)	0.00010	(1968)
Hans_Zimmer	0	(2528)	3	(835)	0	(2330)	1	(1316)	0.00	(1843)	0.00005	(2543)
Jerry_Bruckheimer	1	(1694)	0	(2670)	0	(2330)	0	(2545)	0.00	(1843)	0.00007	(2377)
Charles_S._Peirce	2	(1180)	5	(449)	1	(1127)	2	(444)	3590.30	(1064)	0.00011	(1882)
Henrik_VII_(Englanti)	0	(2528)	8	(193)	0	(2330)	2	(444)	0.00	(1843)	0.00005	(2961)
Thom_Yorke	0	(2528)	1	(1804)	0	(2330)	1	(1316)	0.00	(1843)	0.00005	(2680)
Albert_I_(Belgia)	0	(2528)	1	(1804)	0	(2330)	1	(1316)	0.00	(1843)	0.00005	(2680)
Muhammad_V	1	(1694)	1	(1804)	1	(1127)	1	(1316)	0.00	(1843)	0.00007	(2336)
Prinssi_Edward,_Wessexin_jaarli	0	(2528)	4	(603)	0	(2330)	2	(444)	0.00	(1843)	0.00005	(2543)
Harald_Godwininpoika	2	(1180)	1	(1804)	1	(1127)	1	(1316)	5.00	(1792)	0.00041	(701)
Bernard_Madoff	0	(2528)	1	(1804)	0	(2330)	1	(1316)	0.00	(1843)	0.00005	(2680)
Frank_Lampard	0	(2528)	1	(1804)	0	(2330)	1	(1316)	0.00	(1843)	0.00005	(2680)
Saparmurat_Nijazov	0	(2528)	1	(1804)	0	(2330)	1	(1316)	0.00	(1843)	0.00005	(2680)
Howard_Shore	0	(2528)	4	(603)	0	(2330)	2	(444)	0.00	(1843)	0.00005	(2543)
Annie_Lennox	1	(1694)	0	(2670)	0	(2330)	0	(2545)	0.00	(1843)	0.00006	(2430)
John_Updike	1	(1694)	0	(2670)	1	(1127)	0	(2545)	0.00	(1843)	0.00007	(2366)
William_Tecumseh_Sherman	1	(1694)	0	(2670)	0	(2330)	0	(2545)	0.00	(1843)	0.00006	(2446)
Samuel_Colt	0	(2528)	1	(1804)	0	(2330)	1	(1316)	0.00	(1843)	0.00005	(2680)
B._F._Skinner	1	(1694)	0	(2670)	1	(1127)	0	(2545)	0.00	(1843)	0.00011	(1913)
Aleksandr_Borodin	1	(1694)	3	(835)	1	(1127)	1	(1316)	7345.08	(719)	0.00018	(1474)
Mili_Balakirev	2	(1180)	1	(1804)	1	(1127)	0	(2545)	2354.00	(1205)	0.00023	(1232)
Pitbull_(muusikko)	0	(2528)	1	(1804)	0	(2330)	0	(2545)	0.00	(1843)	0.00005	(2680)
Marc_Anthony	1	(1694)	0	(2670)	0	(2330)	0	(2545)	0.00	(1843)	0.00010	(2015)
César_Franck	1	(1694)	0	(2670)	1	(1127)	0	(2545)	0.00	(1843)	0.00013	(1780)
Gabrielle_Giffords	1	(1694)	0	(2670)	1	(1127)	0	(2545)	0.00	(1843)	0.00015	(1625)
Paolo_Rossi	1	(1694)	0	(2670)	1	(1127)	0	(2545)	0.00	(1843)	0.00041	(700)
Kaarle_VII_(keisari)	0	(2528)	1	(1804)	0	(2330)	1	(1316)	0.00	(1843)	0.00005	(2680)
Stephen_Jay_Gould	0	(2528)	1	(1804)	0	(2330)	1	(1316)	0.00	(1843)	0.00005	(2680)
Henrik_II_(Englanti)	0	(2528)	3	(835)	0	(2330)	1	(1316)	0.00	(1843)	0.00005	(2543)
Carl_von_Clausewitz	2	(1180)	0	(2670)	1	(1127)	0	(2545)	0.00	(1843)	0.00013	(1790)
Claude_Shannon	0	(2528)	1	(1804)	0	(2330)	1	(1316)	0.00	(1843)	0.00005	(2680)
Filip_II_(Espanja)	0	(2528)	1	(1804)	0	(2330)	1	(1316)	0.00	(1843)	0.00005	(2680)
Wolfgang_Schüssel	0	(2528)	1	(1804)	0	(2330)	1	(1316)	0.00	(1843)	0.00005	(2680)
Walter_Model	0	(2528)	1	(1804)	0	(2330)	1	(1316)	0.00	(1843)	0.00005	(2680)
William_Makepeace_Thackeray	0	(2528)	1	(1804)	0	(2330)	0	(2545)	0.00	(1843)	0.00005	(2680)
Juan_Ponce_de_León	0	(2528)	1	(1804)	0	(2330)	1	(1316)	0.00	(1843)	0.00005	(2680)
Georges_Cuvier	0	(2528)	2	(1229)	0	(2330)	1	(1316)	0.00	(1843)	0.00005	(2965)
Abebe_Bikila	0	(2528)	1	(1804)	0	(2330)	1	(1316)	0.00	(1843)	0.00005	(2680)
Hans_Karl_August_Simon_von_Euler-Chelpin	0	(2528)	1	(1804)	0	(2330)	0	(2545)	0.00	(1843)	0.00005	(2680)
Walther_Hermann_Nernst	1	(1694)	0	(2670)	0	(2330)	0	(2545)	0.00	(1843)	0.00010	(2015)
Mohammed_Omar	0	(2528)	1	(1804)	0	(2330)	1	(1316)	0.00	(1843)	0.00005	(2680)
Fredrik_III_(Tanska)	0	(2528)	2	(1229)	0	(2330)	1	(1316)	0.00	(1843)	0.00005	(2965)
Jessica_Lange	0	(2528)	2	(1229)	0	(2330)	1	(1316)	0.00	(1843)	0.00005	(2965)
Jennifer_Jones	0	(2528)	12	(72)	0	(2330)	2	(444)	0.00	(1843)	0.00005	(2680)
Lillian_Gish	1	(1694)	3	(835)	0	(2330)	1	(1316)	105.28	(1692)	0.00006	(2520)
Al_Capone	1	(1694)	0	(2670)	1	(1127)	0	(2545)	0.00	(1843)	0.00031	(925)
Aleksei_II	1	(1694)	2	(1229)	1	(1127)	1	(1316)	2058.00	(1295)	0.00016	(1544)
Kirill	1	(1694)	1	(1804)	1	(1127)	1	(1316)	0.00	(1843)	0.00013	(1792)
Philipp_Lenard	1	(1694)	5	(449)	1	(1127)	2	(444)	7466.59	(710)	0.00008	(2181)
Richard_R._Schrock	0	(2528)	1	(1804)	0	(2330)	1	(1316)	0.00	(1843)	0.00005	(2680)
François_Duvalier	1	(1694)	0	(2670)	1	(1127)	0	(2545)	0.00	(1843)	0.00008	(2194)
Thomas_Kuhn	1	(1694)	0	(2670)	1	(1127)	0	(2545)	0.00	(1843)	0.00008	(2256)
Eduard_Buchner	0	(2528)	1	(1804)	0	(2330)	1	(1316)	0.00	(1843)	0.00005	(2680)
Amelia_Earhart	0	(2528)	3	(835)	0	(2330)	2	(444)	0.00	(1843)	0.00005	(2543)
Emanuel_Swedenborg	0	(2528)	2	(1229)	0	(2330)	2	(444)	0.00	(1843)	0.00005	(2965)
Paul_Auster	1	(1694)	6	(326)	0	(2330)	1	(1316)	581.76	(1535)	0.00006	(2461)
Niels_Henrik_Abel	0	(2528)	3	(835)	0	(2330)	2	(444)	0.00	(1843)	0.00005	(2543)
Sophus_Lie	1	(1694)	0	(2670)	0	(2330)	0	(2545)	0.00	(1843)	0.00007	(2377)
F._Scott_Fitzgerald	0	(2528)	2	(1229)	0	(2330)	1	(1316)	0.00	(1843)	0.00005	(2965)
Guy_Fawkes	1	(1694)	0	(2670)	1	(1127)	0	(2545)	0.00	(1843)	0.00009	(2126)
Tony_Parker	0	(2528)	1	(1804)	0	(2330)	0	(2545)	0.00	(1843)	0.00005	(2680)
Svante_Arrhenius	0	(2528)	2	(1229)	0	(2330)	0	(2545)	0.00	(1843)	0.00005	(2965)
Jean_Baptiste_Joseph_Fourier	1	(1694)	0	(2670)	0	(2330)	0	(2545)	0.00	(1843)	0.00007	(2270)
James_Mason	1	(1694)	1	(1804)	1	(1127)	1	(1316)	584.12	(1534)	0.00007	(2343)
Theo_van_Gogh	0	(2528)	1	(1804)	0	(2330)	1	(1316)	0.00	(1843)	0.00005	(2680)
Haruki_Murakami	0	(2528)	5	(449)	0	(2330)	1	(1316)	0.00	(1843)	0.00005	(2660)
Julie_Andrews	0	(2528)	2	(1229)	0	(2330)	2	(444)	0.00	(1843)	0.00005	(2965)
Iris_Murdoch	0	(2528)	3	(835)	0	(2330)	1	(1316)	0.00	(1843)	0.00005	(2543)
Sofija_Gubaidulina	1	(1694)	1	(1804)	1	(1127)	1	(1316)	0.00	(1843)	0.00009	(2128)
Mira_Sorvino	0	(2528)	1	(1804)	0	(2330)	1	(1316)	0.00	(1843)	0.00005	(2680)
Zachary_Quinto	0	(2528)	1	(1804)	0	(2330)	0	(2545)	0.00	(1843)	0.00005	(2680)
Gustave_Moreau	1	(1694)	1	(1804)	1	(1127)	1	(1316)	493.12	(1555)	0.00009	(2146)
Richard_Holbrooke	0	(2528)	2	(1229)	0	(2330)	2	(444)	0.00	(1843)	0.00005	(2965)
Bertha_von_Suttner	1	(1694)	3	(835)	1	(1127)	1	(1316)	4049.45	(1025)	0.00015	(1642)
Ernst_Haeckel	0	(2528)	1	(1804)	0	(2330)	1	(1316)	0.00	(1843)	0.00005	(2680)
Sam_Houston	1	(1694)	0	(2670)	1	(1127)	0	(2545)	0.00	(1843)	0.00013	(1801)
Adolphe_Thiers	0	(2528)	2	(1229)	0	(2330)	2	(444)	0.00	(1843)	0.00005	(2965)
Jørn_Utzon	0	(2528)	3	(835)	0	(2330)	1	(1316)	0.00	(1843)	0.00005	(2543)
Alvar_Aalto	1	(1694)	0	(2670)	0	(2330)	0	(2545)	0.00	(1843)	0.00007	(2377)
Gary_Lineker	0	(2528)	2	(1229)	0	(2330)	1	(1316)	0.00	(1843)	0.00005	(2965)
Miguel_Serveto	0	(2528)	1	(1804)	0	(2330)	1	(1316)	0.00	(1843)	0.00005	(2680)
Hanns_Eisler	0	(2528)	3	(835)	0	(2330)	2	(444)	0.00	(1843)	0.00005	(2543)
Andri_Ševtšenko	2	(1180)	0	(2670)	1	(1127)	0	(2545)	0.00	(1843)	0.00015	(1628)
Choderlos_de_Laclos	0	(2528)	6	(326)	0	(2330)	1	(1316)	0.00	(1843)	0.00005	(2531)
Colin_Firth	1	(1694)	0	(2670)	0	(2330)	0	(2545)	0.00	(1843)	0.00006	(2485)
John_Malkovich	1	(1694)	0	(2670)	0	(2330)	0	(2545)	0.00	(1843)	0.00006	(2485)
Marjane_Satrapi	0	(2528)	1	(1804)	0	(2330)	1	(1316)	0.00	(1843)	0.00005	(2680)
Jonathan_Rhys_Meyers	1	(1694)	0	(2670)	1	(1127)	0	(2545)	0.00	(1843)	0.00006	(2410)
Hjalmar_Branting	0	(2528)	1	(1804)	0	(2330)	1	(1316)	0.00	(1843)	0.00005	(2680)
Hypatia_Aleksandrialainen	0	(2528)	4	(603)	0	(2330)	2	(444)	0.00	(1843)	0.00005	(2543)
Paul_Erdős	1	(1694)	0	(2670)	1	(1127)	0	(2545)	0.00	(1843)	0.00013	(1792)
Sharon_den_Adel	0	(2528)	1	(1804)	0	(2330)	1	(1316)	0.00	(1843)	0.00005	(2680)
Adriana_Lima	0	(2528)	2	(1229)	0	(2330)	1	(1316)	0.00	(1843)	0.00005	(2965)
Henrik_VI_(Englanti)	0	(2528)	3	(835)	0	(2330)	2	(444)	0.00	(1843)	0.00005	(2543)
Gustave_Eiffel	0	(2528)	2	(1229)	0	(2330)	1	(1316)	0.00	(1843)	0.00005	(2965)
Ferdinand_de_Lesseps	1	(1694)	0	(2670)	0	(2330)	0	(2545)	0.00	(1843)	0.00007	(2270)
Judit_Polgár	1	(1694)	0	(2670)	1	(1127)	0	(2545)	0.00	(1843)	0.00008	(2195)
Geert_Wilders	0	(2528)	3	(835)	0	(2330)	1	(1316)	0.00	(1843)	0.00005	(2543)
Jan_Peter_Balkenende	1	(1694)	0	(2670)	0	(2330)	0	(2545)	0.00	(1843)	0.00007	(2377)
Peter_Crouch	0	(2528)	2	(1229)	0	(2330)	1	(1316)	0.00	(1843)	0.00005	(2965)
Georgi_Părvanov	1	(1694)	0	(2670)	1	(1127)	0	(2545)	0.00	(1843)	0.00009	(2098)
Bülent_Ecevit	1	(1694)	2	(1229)	1	(1127)	1	(1316)	327.35	(1591)	0.00009	(2113)
Rabindranath_Tagore	1	(1694)	1	(1804)	1	(1127)	1	(1316)	1995.02	(1333)	0.00009	(2107)
Thomas_Harris	1	(1694)	0	(2670)	1	(1127)	0	(2545)	0.00	(1843)	0.00019	(1379)
Frederik_Willem_de_Klerk	1	(1694)	2	(1229)	1	(1127)	2	(444)	0.00	(1843)	0.00018	(1452)
Pietari_II_(Jugoslavia)	0	(2528)	2	(1229)	0	(2330)	2	(444)	0.00	(1843)	0.00005	(2965)
Michael_Ende	0	(2528)	2	(1229)	0	(2330)	0	(2545)	0.00	(1843)	0.00005	(2965)
Nelly_Sachs	0	(2528)	1	(1804)	0	(2330)	0	(2545)	0.00	(1843)	0.00005	(2680)
Selma_Lagerlöf	1	(1694)	0	(2670)	0	(2330)	0	(2545)	0.00	(1843)	0.00010	(2015)
Martin_Niemöller	0	(2528)	3	(835)	0	(2330)	2	(444)	0.00	(1843)	0.00005	(2543)
Dietrich_Bonhoeffer	1	(1694)	3	(835)	0	(2330)	2	(444)	556.54	(1540)	0.00007	(2368)
Nikolaos_Ihmeidentekijä	0	(2528)	3	(835)	0	(2330)	2	(444)	0.00	(1843)	0.00005	(2543)
Kakha_Kaladze	0	(2528)	1	(1804)	0	(2330)	0	(2545)	0.00	(1843)	0.00005	(2680)
Talcott_Parsons	0	(2528)	1	(1804)	0	(2330)	0	(2545)	0.00	(1843)	0.00005	(2680)
Sacha_Baron_Cohen	0	(2528)	3	(835)	0	(2330)	1	(1316)	0.00	(1843)	0.00005	(2543)
Bonnie_Wright	0	(2528)	1	(1804)	0	(2330)	1	(1316)	0.00	(1843)	0.00005	(2680)
Francis_Poulenc	0	(2528)	3	(835)	0	(2330)	1	(1316)	0.00	(1843)	0.00005	(2543)
Adam_Johnson	0	(2528)	1	(1804)	0	(2330)	1	(1316)	0.00	(1843)	0.00005	(2680)
Frans_I_(Itävalta)	0	(2528)	5	(449)	0	(2330)	2	(444)	0.00	(1843)	0.00005	(2660)
Colin_McRae	0	(2528)	1	(1804)	0	(2330)	1	(1316)	0.00	(1843)	0.00005	(2680)
Jacques_Brel	0	(2528)	2	(1229)	0	(2330)	1	(1316)	0.00	(1843)	0.00005	(2965)
Julie_Christie	0	(2528)	1	(1804)	0	(2330)	0	(2545)	0.00	(1843)	0.00005	(2680)
José_Mujica	0	(2528)	1	(1804)	0	(2330)	1	(1316)	0.00	(1843)	0.00005	(2680)
Jan_van_Eyck	0	(2528)	2	(1229)	0	(2330)	2	(444)	0.00	(1843)	0.00005	(2965)
James_Blunt	0	(2528)	3	(835)	0	(2330)	3	(39)	0.00	(1843)	0.00005	(2543)
Joseph-Louis_Lagrange	1	(1694)	1	(1804)	1	(1127)	1	(1316)	226.27	(1625)	0.00010	(2048)
Leopold_I_(Belgia)	0	(2528)	3	(835)	0	(2330)	1	(1316)	0.00	(1843)	0.00005	(2543)
Mihail_Lermontov	0	(2528)	1	(1804)	0	(2330)	0	(2545)	0.00	(1843)	0.00005	(2680)
Alphonse_de_Lamartine	0	(2528)	1	(1804)	0	(2330)	1	(1316)	0.00	(1843)	0.00005	(2680)
Mathias_Rust	0	(2528)	1	(1804)	0	(2330)	1	(1316)	0.00	(1843)	0.00005	(2680)
Sulley_Muntari	0	(2528)	2	(1229)	0	(2330)	1	(1316)	0.00	(1843)	0.00005	(2965)
Steven_Chu	0	(2528)	1	(1804)	0	(2330)	1	(1316)	0.00	(1843)	0.00005	(2680)
Mihail_Glinka	1	(1694)	0	(2670)	1	(1127)	0	(2545)	0.00	(1843)	0.00026	(1113)
Cecil_Rhodes	1	(1694)	0	(2670)	1	(1127)	0	(2545)	0.00	(1843)	0.00018	(1452)
Robert_Pattinson	1	(1694)	9	(161)	1	(1127)	3	(39)	3705.20	(1051)	0.00007	(2404)
Chris_Cooper	1	(1694)	0	(2670)	1	(1127)	0	(2545)	0.00	(1843)	0.00006	(2508)
Caspar_David_Friedrich	1	(1694)	0	(2670)	1	(1127)	0	(2545)	0.00	(1843)	0.00014	(1664)
H._P._Blavatsky	0	(2528)	21	(17)	0	(2330)	3	(39)	0.00	(1843)	0.00005	(3092)
Rudolf_Steiner	1	(1694)	0	(2670)	0	(2330)	0	(2545)	0.00	(1843)	0.00005	(2526)
Paracelsus	1	(1694)	0	(2670)	0	(2330)	0	(2545)	0.00	(1843)	0.00005	(2526)
George_Habash	0	(2528)	3	(835)	0	(2330)	2	(444)	0.00	(1843)	0.00005	(2543)
Joseph_Schumpeter	0	(2528)	2	(1229)	0	(2330)	2	(444)	0.00	(1843)	0.00005	(2965)
James_McAvoy	0	(2528)	2	(1229)	0	(2330)	1	(1316)	0.00	(1843)	0.00005	(2965)
Frank_Herbert	1	(1694)	0	(2670)	0	(2330)	0	(2545)	0.00	(1843)	0.00007	(2270)
Xabi_Alonso	0	(2528)	1	(1804)	0	(2330)	1	(1316)	0.00	(1843)	0.00005	(2680)
Pyhä_Leo_I	0	(2528)	3	(835)	0	(2330)	1	(1316)	0.00	(1843)	0.00005	(2543)
Bronisław_Komorowski	0	(2528)	2	(1229)	0	(2330)	1	(1316)	0.00	(1843)	0.00005	(2965)
Engelbert_Humperdinck	0	(2528)	1	(1804)	0	(2330)	1	(1316)	0.00	(1843)	0.00005	(2680)
Samuel_P._Huntington	0	(2528)	4	(603)	0	(2330)	2	(444)	0.00	(1843)	0.00005	(2543)
Francis_Fukuyama	1	(1694)	0	(2670)	0	(2330)	0	(2545)	0.00	(1843)	0.00006	(2430)
Werner_Herzog	0	(2528)	4	(603)	0	(2330)	2	(444)	0.00	(1843)	0.00005	(2543)
Gotthold_Ephraim_Lessing	0	(2528)	3	(835)	0	(2330)	2	(444)	0.00	(1843)	0.00005	(2543)
Lee_Kuan_Yew	0	(2528)	1	(1804)	0	(2330)	1	(1316)	0.00	(1843)	0.00005	(2680)
Robert_Shaw	0	(2528)	3	(835)	0	(2330)	1	(1316)	0.00	(1843)	0.00005	(2543)
Edvard_I_(Englanti)	0	(2528)	2	(1229)	0	(2330)	2	(444)	0.00	(1843)	0.00005	(2965)
Albert_Schweitzer	0	(2528)	5	(449)	0	(2330)	2	(444)	0.00	(1843)	0.00005	(2660)
Geta_(Rooman_keisari)	0	(2528)	2	(1229)	0	(2330)	1	(1316)	0.00	(1843)	0.00005	(2965)
Tré_Cool	0	(2528)	1	(1804)	0	(2330)	1	(1316)	0.00	(1843)	0.00005	(2680)
Jean-Martin_Charcot	0	(2528)	1	(1804)	0	(2330)	1	(1316)	0.00	(1843)	0.00005	(2680)
